Generated by Twist2D
    1.0
       6.16807700       2.13668500       0.00000000
       1.23361400       6.41005500       0.00000000
       0.00000000       0.00000000      19.00000000
    C
    28
Direct
     0.00000000     0.00000000     0.10000000
     0.14285714     0.28571429     0.10000000
     0.28571429     0.57142857     0.10000000
     0.42857143     0.85714286     0.10000000
     0.57142857     0.14285714     0.10000000
     0.71428571     0.42857143     0.10000000
     0.85714286     0.71428571     0.10000000
     0.38095214     0.09523829     0.10001500
     0.52380929     0.38095257     0.10001500
     0.66666643     0.66666686     0.10001500
     0.80952357     0.95238114     0.10001500
     0.95238071     0.23809543     0.10001500
     1.09523786     0.52380971     0.10001500
     1.23809500     0.80952400     0.10001500
     0.14285714     0.57142857     0.28555600
     0.42857143     0.71428571     0.28555600
     0.71428571     0.85714286     0.28555600
     0.00000000     0.00000000     0.28555600
     0.28571429     0.14285714     0.28555600
     0.57142857     0.28571429     0.28555600
     0.85714286     0.42857143     0.28555600
     0.38095257     0.52380929     0.28554100
     0.66666686     0.66666643     0.28554100
     0.95238114     0.80952357     0.28554100
     0.23809543    -0.04761929     0.28554100
     0.52380971     0.09523786     0.28554100
     0.80952400     0.23809500     0.28554100
     1.09523829     0.38095214     0.28554100
