 C 
 1.0000000000000000
   129.2797922755434286    0.0000000000000000    0.0000000000000000
   -64.6398956625758245  111.9595756773525750    0.0000000000000000
     0.0000000000000000    0.0000000000000000   19.0000000000000000
 C  
 11164
Cartesian
 -61.9970673405478507 111.1827270791545601  7.4933312100768594
 -59.8709202127806606 112.3925731706102482  7.4930391069976547
 -59.8865236468137851 109.9445311692906984  7.4928540902546876
 -57.7610416123906987 111.1542337715084159  7.4924182952585454
 -55.6358389857951607 112.3642740214712603  7.4917352474318566
 -59.9015651587611302 107.4964392824783488  7.4923726123337557
 -57.7764031335171140 108.7055542163570436  7.4920439244088426
 -55.6515795985545196 109.9150516938590698  7.4914705833421262
 -53.5270315533630665 111.1248223089210256  7.4906686399036762
 -51.4026945461406513 112.3347664358579152  7.4896462032653561
 -57.7912627095846787 106.2568013058328802  7.4913799997510342
 -55.6667523648505380 107.4657188681677980  7.4909036286494288
 -53.5425744867865774 108.6749493083769238  7.4902027915689819
 -51.4186653965195148 109.8843963081220068  7.4892891277390152
 -49.2949543600498288 111.0939599282033470  7.4881652214988081
 -47.1713724208591145 112.3035387884058309  7.4868263045397256
 -57.8057431987157671 103.8079725251311203  7.4904461963394162
 -55.6814808460649857 105.0162816679111017  7.4900581815802303
 -53.5576113672222363 106.2249475291785359  7.4894483217533665
 -51.4340647449309927 107.4338731594898775  7.4886317797075543
 -49.3107694026443966 108.6429580231652778  7.4876154507519992
 -47.1876624124102619 109.8521060802719376  7.4863993996407103
 -45.0646649330877906 111.0612156528074337  7.4849770692731834
 -42.9417055430594559 112.2701916894547196  7.4833346043173394
 -55.6958860995997824 102.5667447842761248  7.4889556551927674
 -53.5722561607033185 103.7748173179088411  7.4884321238265539
 -51.4490042561349128 104.9831895917225495  7.4877069441633157
 -49.3260620293853407 106.1917732627166515  7.4867905218192474
 -47.2033590023689342 107.4004695153061135  7.4856877289932129
 -45.0808211172226692 108.6091791216951492  7.4843977444185228
 -42.9583761744625718 109.8178063570751419  7.4829135286138877
 -40.8359453708762601 111.0262517483159002  7.4812219053355902
 -38.7134530110385100 112.2344228407998088  7.4793043238585133
 -55.7100905926648551 100.1171160699311997  7.4876139992015736
 -53.5866335734188652 101.3245725924387699  7.4871775485844472
 -51.4636087549112702 102.5323691284255005  7.4865434486423350
 -49.3409473076213203 103.7404286675579499  7.4857261563050637
 -47.2185804235615265 104.9486441420628182  7.4847339504074766
 -45.0964296775236946 106.1569324704664297  7.4835708839670900
 -42.9744245940804035 107.3651944291476923  7.4822360949293278
 -40.8524842267572268 108.5733310159983915  7.4807233972917180
 -38.7305350524044556 109.7812561049804003  7.4790205880314433
 -36.6084960562812682 110.9888722538290295  7.4771108267181479
 -34.4862838719535532 112.1960810356015088  7.4749743310682852
 -53.6008616282862747 98.8742121663452309  7.4857033471221950
 -51.4779955640905769 100.0814167148492118  7.4851665276347799
 -49.3555466995060357 101.2889273195550004  7.4844532794982559
 -47.2334420450998209 102.4966528593420065  7.4835755325410940
 -45.1116085025706610 103.7044949447254112  7.4825408939075508
 -42.9899679475895482 104.9123734140062254  7.4813537029614521
 -40.8684437216751064 106.1201892885836884  7.4800139176573914
 -38.7469581010837771 107.3278562448142708  7.4785164087006066
 -36.6254336771953035 108.5352771337254865  7.4768499436156155
 -34.5037830364999394 109.7423623729014110  7.4749997974890050
 -32.3819294367057893 110.9490227914397451  7.4729477761670760
 -30.2597786732888991 112.1551641059534177  7.4706720145482102
 -53.6150704476515401 96.4237554405780060  7.4840214346172358
 -51.4922878031115516 97.6303444612740066  7.4835950701236253
 -49.3699780029501838 98.8372861921573360  7.4829968991258244
 -47.2480645836725373 100.0444972644296087  7.4822431900110198
 -45.1264700213775711 101.2518884915007789  7.4813450628714993
 -43.0051200652564987 102.4593706510571991  7.4803104197873793
 -40.8839364105796790 103.6668498511918983  7.4791443231975299
 -38.7628379525456168 104.8742469513932036  7.4778475884171094
 -36.6417470704416317 106.0814635100289962  7.4764157652875110
 -34.5205797732539992 107.2884172283550441  7.4748388171361677
 -32.3992512875113761 108.4950149259868368  7.4731032267784538
 -30.2776799307558449 109.7011693952745475  7.4711921540500397
 -28.1557741316741783 110.9067943525128754  7.4690845935836316
 -26.0334425810599441 112.1118025558563431  7.4667550689198814
 -51.5066096789977763 95.1791588492400251  7.4818410148492642
 -49.3843636424500687 96.3855173399419556  7.4813762493699905
 -47.2625649719714147 97.5922045800803346  7.4807621482050202
 -45.1411361960086168 98.7991231770125609  7.4800138167551076
 -43.0199985217851619 100.0061979290955492  7.4791424217302183
 -40.8990767108541391 101.2133360962908313  7.4781566026451962
 -38.7782843462346349 102.4204541761266114  7.4770623443842315
 -36.6575463610148518 103.6274628066007750  7.4758608879325541
 -34.5367788633802562 104.8342725821569701  7.4745476437780747
 -32.4158963702801870 106.0408077572343757  7.4731132157480662
 -30.2948172227946912 107.2469687596530008  7.4715448822432986
 -28.1734501834640412 108.4526806886186847  7.4698262289286737
 -26.0517079386590709 109.6578576441759054  7.4679364647510580
 -23.9294970025300060 110.8624155397774160  7.4658502556404152
 -51.5210815731966889 92.7278786802286419  7.4799066813909389
 -49.3988237861681085 93.9336437133073190  7.4796019941079157
 -47.2770621251559646 95.1397883920674587  7.4791501172509598
 -45.1557216163997737 96.3462266221996089  7.4785705622909751
 -43.0347227274141204 97.5528840867825551  7.4778781057575490
 -40.9139792617489206 98.7596684380240788  7.4770847247000187
 -38.7934155744134941 99.9665021337989970  7.4761997791631352
 -36.6729493826648678 101.1732972032340996  7.4752292321132936
 -34.5524985462087102 102.3799634474538465  7.4741739255486355
 -32.4319782384951480 103.5864261241557784  7.4730289342490650
 -30.3113016392304608 104.7925974958700266  7.4717847299122306
 -28.1903867415571199 105.9983951601199408  7.4704286173497589
 -26.0691424213260561 107.2037345781572668  7.4689438753378585
 -23.9474770754469404 108.4085319968193772  7.4673094061288170
 -49.4134789398081296 91.4816711045020270  7.4776758013705491
 -47.2916806148537958 92.6872636437907431  7.4774162339318391
 -45.1703472645992079 93.8932167442188046  7.4770310210960984
 -43.0494024749648858 95.0994459543605757  7.4765386058849206
 -40.9287634105489673 96.3058748526397181  7.4759541901960169
 -38.8083473701326653 97.5124178842119704  7.4752900431141116
 -36.6880701157544777 98.7189925192464273  7.4745557564092149
 -34.5678510953440679 99.9255183692164053  7.4737567891888936
 -32.4476066101413707 101.1319142410472551  7.4728928025171522
 -30.3272505968939328 102.3380892810421017  7.4719575508967280
 -28.2066990671955473 103.5439711231293387  7.4709411666891405
 -26.0858632208011514 104.7494706282191999  7.4698303631771985
 -23.9646529376259139 105.9545095698924797  7.4686072089966205
 -21.8429808655899294 107.1590157625539348  7.4672482384495682
 -49.4284571848326806 89.0296296498099196  7.4755907940659032
 -47.3065349872238414 90.2346611008273527  7.4755602335942717
 -45.1851333025244344 91.4401134985141226  7.4754015006291583
 -43.0641639222565118 92.6459141443972953  7.4751361530719622
 -40.9435441805622702 93.8519777520211278  7.4747820347281833
 -38.8231906402592486 95.0582306078104295  7.4743545303179042
 -36.7030214387654183 96.2645904274481694  7.4738662069523123
 -34.5829533974143146 97.4709655933742454  7.4733259812431054
 -32.4628968379639247 98.6772912214125881  7.4727380295231534
 -30.3427763853267933 99.8834767247373918  7.4721000067893861
 -28.2224997983365888 101.0894394257934863  7.4714045846894415
 -26.1019836372696119 102.2951006242352889  7.4706403936590640
 -23.9811403552401785 103.5003856949516603  7.4697915208170826
 -21.8598798416523792 104.7052052757987184  7.4688373685341674
 -47.3217547496171491 87.7819926365845902  7.4735737988196886
 -45.2001966923150817 88.9869412610394761  7.4736792601029318
 -43.0791186574640506 90.1923081929857489  7.4736732826449117
 -40.9584356791980397 91.3980062345299444  7.4735763144696676
 -38.8380644892650864 92.6039683665266011  7.4734060619362692
 -36.7179193976945299 93.8101074089686193  7.4731773799650423
 -34.5979144082632502 95.0163411077292466  7.4729025197536725
 -32.4779674471455593 96.2225983441729369  7.4725892335429540
 -30.3579929834011359 97.4287914042540422  7.4722397315976457
 -28.2379064791963081 98.6348385776793180  7.4718492585304377
 -26.1176237603264916 99.8406663714020652  7.4714076207589892
 -23.9970570005723474 101.0461865720891268  7.4709000300902826
 -21.8761196061060730 102.2513276506699214  7.4703087342161067
 -19.7547219351070638 103.4560066730117001  7.4696129083904550
 -47.3374586370165460 85.3292889679651552  7.4714398690478951
 -45.2156588424067536 86.5337319527016433  7.4718534201018132
 -43.0943883318062433 87.7386568747921984  7.4721440412052793
 -40.9735584140543381 88.9439874935612949  7.4723352883750742
 -38.8530831104616610 90.1496533574172076  7.4724471480139272
 -36.7328755590402523 91.3555751234521978  7.4724966887790032
 -34.6128522143072530 92.5616702702953802  7.4724979916210330
 -32.4929286885103963 93.7678577179290613  7.4724624572170635
 -30.3730171776393441 94.9740636805747300  7.4723961237987595
 -28.2530355372240258 96.1802018358041693  7.4722968268330181
 -26.1328978445936357 97.3861888193878968  7.4721559090142806
 -24.0125202972364349 98.5919535226919095  7.4719607224204596
 -21.8918170204855258 99.7974125275611641  7.4716956391380860
 -19.7706983890823977 101.0024841702436333  7.4713422972864603
 -45.2316442121727036 84.0805030013731169  7.4699041057802393
 -43.1100920750977181 85.2849842838109140  7.4705342421748187
 -40.9890270690514384 86.4899535707733236  7.4710490806563836
 -38.8683644241209265 87.6953254962090654  7.4714717122673076
 -36.7480098422312977 88.9010281394809141  7.4718215338958291
 -34.6278821896457174 90.1069853039811903  7.4721145545730927
 -32.5078959873961537 91.3131087747024281  7.4723641419900275
 -30.3879620474494594 92.5193290427826014  7.4725782951296740
 -28.2680000422071274 93.7255501691947899  7.4727587967544089
 -26.1479234651932444 94.9317109066905971  7.4729002903199664
 -24.0276492784029223 96.1377158880317353  7.4729924018485567
 -21.9070921926889852 97.3434945414478534  7.4730212206501845
 -19.7861666808102683 98.5489597100950760  7.4729709325928635
 -17.6647865745517763 99.7540396729459786  7.4728225442465659
 -45.2482733604462837 81.6272911043575391  7.4678016382356285
 -43.1263496926909795 82.8313328400220001  7.4688204313224560
 -41.0049630850311644 84.0359281326766165  7.4696995497851901
 -38.8840195243105811 85.2410084405402131  7.4704654402224442
 -36.7634356389575174 86.4464962813013784  7.4711407084222277
 -34.6431175836080669 87.6523118130899093  7.4717438439099046
 -32.5229818419596626 88.8583781351241271  7.4722888620308323
 -30.4029433031628677 90.0646080149832358  7.4727854698507690
 -28.2829153877822819 91.2709298493371648  7.4732387228444672
 -26.1628162040503582 92.4772525423610858  7.4736473886103898
 -24.0425596630269141 93.6835051309106177  7.4740048902067011
 -21.9220650593300306 94.8895980610970611  7.4742996110872637
 -19.8012448186341032 96.0954544481586765  7.4745179276802469
 -17.6800182193663815 97.3009931507322392  7.4746432114692496
 -43.1432830569398575 80.3777215969386134  7.4669692485208525
 -41.0214822957249652 81.5819514955989291  7.4682590843807004
 -38.9001755558242053 82.7867376162343334  7.4694058996459969
 -36.7792674893021356 83.9920085931546083  7.4704355025764198
 -34.6586729574768100 85.1976881245321351  7.4713690381556068
 -32.5383057898317958 86.4036956278171999  7.4722218886955805
 -30.4180744228140512 87.6099446843372078  7.4730061978696689
 -28.2978979965084072 88.8163562131827717  7.4737295564582480
 -26.1776906366482756 90.0228523454050418  7.4743951585377069
 -24.0573700842516907 91.2293442048945593  7.4750003758502581
 -21.9368521265409271 92.4357564469020190  7.4755369294427512
 -19.8160561388403451 93.6419943089654652  7.4759938197306699
 -17.6948992385596355 94.8479948643242494  7.4763569592440939
 -15.5732987432144370 96.0536604373638170  7.4766094488495067
 -43.1610112321605683 77.9241960198979058  7.4649379203610433
 -41.0387043829264755 79.1280490235741922  7.4666900439833919
 -38.9169399121962911 80.3325461036123585  7.4682598287892183
 -36.7956252391905281 81.5376023741773821  7.4696763598594043
 -34.6746663870549199 82.7431458311490786  7.4709634060906804
 -32.5539785291958026 83.9490932635975042  7.4721399722881827
 -30.4334718160236228 85.1553629853248566  7.4732201589221514
 -28.3130614633589417 86.3618725260083835  7.4742148856828114
 -26.1926628257202658 87.5685355130735417  7.4751314412134828
 -24.0721938015579759 88.7752687926587924  7.4759710765635248
 -21.9515732872614748 89.9819898288868956  7.4767304786897295
 -19.8307184640945025 91.1886157047135555  7.4774007580267225
 -17.7095483065336481 92.3950610277095876  7.4779712188716747
 -15.5879844887013448 93.6012433139237032  7.4784283001579412
 -41.0567492110171912 76.6742704795769185  7.4649457898607219
 -38.9344368533824792 77.8784672143130905  7.4669845889106403
 -36.8126196662334451 79.0833107318260176  7.4688239358892421
 -34.6912102627539838 80.2887155117815468  7.4704916380047228
 -32.5701152067064825 81.4946085724259035  7.4720104360792998
 -30.4492459764305536 82.7008934953691295  7.4733984664573114
 -28.3285190622238972 83.9074955925921842  7.4746696113542326
 -26.2078475054231355 85.1143258018078228  7.4758347971177823
 -24.0871491934173747 86.3213001662573447  7.4769004493546678
 -21.9663440382272057 87.5283321718232514  7.4778675665828249
 -19.8453497331372652 88.7353356589628532  7.4787317586112385
 -17.7240895346919061 89.9422237849771307  7.4794850496767129
 -15.6024809887344063 91.1489133329993706  7.4801172989778832
 -13.4804490078737231 92.3553175472887347  7.4806151802284342
 -41.0757233435549338 74.2206492858067719  7.4629707398238772
 -38.9527746936729429 75.4245466795251218  7.4655275895106570
 -36.8303695137986793 76.6291697403385825  7.4678295790700329
 -34.7084182298902633 77.8344376967726248  7.4699086312606218
 -32.5868311052918287 79.0402644745737746  7.4717922874313363
 -30.4655152160502780 80.2465709161837708  7.4735031736422526
 -28.3443862803185205 81.4532668068195136  7.4750594500432932
 -26.2233590972546935 82.6602605970370945  7.4764755306590125
 -24.1023515119001637 83.8674716516713943  7.4777626229599194
 -21.9812817987189746 85.0748033946052544  7.4789273716583482
 -19.8600703241681060 86.2821780474241251  7.4799705626222188
 -17.7386392560687085 87.4894983814097884  7.4808881392014470
 -15.6169111031624936 88.6966808684833978  7.4816731483699277
 -13.4948084444318255 89.9036379439023676  7.4823158075065734
 19.9027107289820115 33.4016390914448777  7.4655107857684202
 -38.9720669282987444 72.9708208601301607  7.4638300200353829
 -36.8489856424168067 74.1752207377353443  7.4666368571973400
 -34.7264050330270635 75.3803426019104563  7.4691610060656277
 -32.6042373240643855 76.5861063094170476  7.4714353210401656
 -30.4823903661722539 77.7924257905033443  7.4734876173213571
 -28.3607767206795636 78.9992092928487324  7.4753409293378246
 -26.2393122190381582 80.2063630840064832  7.4770143863192677
 -24.1179144521425037 81.4137997431667486  7.4785235801053735
 -21.9965026462528890 82.6214310503350617  7.4798806102725548
 -19.8749955687201201 83.8291637904843299  7.4810927204783919
 -17.7533191318338623 85.0369063349804577  7.4821612916057356
 -15.6313939944181186 86.2445685987452748  7.4830831920992953
 -13.5091465015016112 87.4520618147427058  7.4838518785060621
 -11.3865013570835885 88.6592983194274780  7.4844580552508875
 17.7403498379347084 29.7420635528914019  7.4691365895973432
 19.8729693836468684 30.9536465536447594  7.4666183913182351
 -38.9924205328275306 70.5173289215989456  7.4618293777331797
 -36.8685732762682932 71.7214998441345557  7.4651838109527917
 -34.7452783121602380 72.9264784501468171  7.4681885178051308
 -32.6224453913205110 74.1321679339496455  7.4708814476228342
 -30.4999833953054384 75.3384907742405119  7.4732963732093989
 -28.3778042197363405 76.5453517508943690  7.4754622794159618
 -26.2558218804801164 77.7526569414380333  7.4774033243650129
 -24.1339539875839257 78.9603150415388200  7.4791402751546210
 -22.0121215683198841 80.1682307801726779  7.4806902002431350
 -19.8902437306254498 81.3763139980912200  7.4820668309843201
 -17.7682456304981358 82.5844639966360177  7.4832782951141805
 -15.6460513911229739 83.7925944407849244  7.4843266463250373
 -13.5235846296019275 85.0006073962544093  7.4852096244229891
 -11.4007747915787903 86.2084116312468325  7.4859206912555551
 15.5802814460392813 26.0815003083659462  7.4733370375298751
 17.7118822734978245 27.2937113166277676  7.4708809973662484
 19.8438358603723159 28.5053204507951712  7.4681931776264410
 21.9761810760003371 29.7162037880192536  7.4652300648062466
 -36.8892359041016107 69.2680545692906833  7.4634070390587324
 -34.7651447282607080 70.4728674967115580  7.4669266144618778
 -32.6415647998088829 71.6784811897425129  7.4700669765094698
 -30.5184041365557590 72.8847992308390360  7.4728677941117354
 -28.3955774957350755 74.0917306967677547  7.4753641940386952
 -26.2729992705710416 75.2991754690006019  7.4775866128212112
 -24.1505842904765764 76.5070433316709426  7.4795612696755169
 -22.0282543063672023 77.7152303788399905  7.4813107473998759
 -19.9059321349343392 78.9236481949062494  7.4828540727938355
 -17.7835387575065837 80.1321892227475558  7.4842062624748165
 -15.6610005099906360 81.3407699437477731  7.4853763601722552
 -13.5382451190688826 82.5492872200038192  7.4863670855222066
 -11.4151988807752787 83.7576445078772736  7.4871761971813475
 -9.2917910607669896 84.9657475634546273  7.4877959129131586
 13.4228389177333511 22.4203252729070144  7.4777914740993356
 15.5534061516766329 23.6329167251088137  7.4754720747131564
 17.6842747618120839 24.8450713767105213  7.4729305966198156
 19.8154915284624416 26.0566680601608240  7.4701352611705740
 21.9471002663820514 27.2675831258057215  7.4670443602297096
 -36.9110613738146256 66.8149165156210216  7.4612502055388772
 -34.7860997250731572 68.0195668076141970  7.4653132571310836
 -32.6616933361619388 69.2250867131042327  7.4689271433821789
 -30.5377584483554259 70.4313860222154773  7.4721366040190142
 -28.4142066394344681 71.6383750932236580  7.4749829028222141
 -26.2909534136638037 72.8459483970986810  7.4775029274929405
 -24.1679174522599567 74.0540071563616209  7.4797288750532358
 -22.0450164517123568 75.2624547157617485  7.4816891286284362
 -19.9221731187644480 76.4711846738084944  7.4834080131306022
 -17.7993135566747505 77.6801003284464713  7.4849061881701999
 -15.6763624631287009 78.8891089169464834  7.4861997333186636
 -13.5532466904617905 80.0981080559524372  7.4872979772743822
 -11.4298953408522195 81.3069933191472245  7.4882033075004637
 -9.3062385771956002 82.5156782467323637  7.4889122325198043
 11.2681925536521543 18.7589149480891848  7.4821399293922282
 13.3977659980794535 19.9716393041369926  7.4800440487944604
 15.5275720279711660 21.1840908391998077  7.4777251754508258
 17.6576622645948333 22.3961493101379894  7.4751620562069299
 19.7880875970182970 23.6076948435769580  7.4723241326428687
 21.9188961423772639 24.8186044026552999  7.4691718148457200
 24.0501329714605809 26.0287537763857557  7.4656564989244263
 -34.8082228223389833 65.5665992873240953  7.4633027169254218
 -32.6829240967036156 66.7720124543086797  7.4674073953524704
 -30.5581413070619980 67.9782852215754900  7.4710431875550967
 -28.4337930596609567 69.1853146647985113  7.4742566197102809
 -26.3097935501826292 70.3929953857931139  7.4770902731048228
 -24.1860613434989986 71.6012288649770454  7.4795828371994828
 -22.0625167967047950 72.8099153126201344  7.4817680849581443
 -19.9390841734431667 74.0189436445746480  7.4836760645778853
 -17.8156877087838907 75.2282158440632287  7.4853323432991496
 -15.6922520592857282 76.4376313146378124  7.4867585270211414
 -13.5687084637284201 77.6470850930733292  7.4879705485919139
 -11.4449846625784701 78.8564794917293455  7.4889767699734033
 -9.3210116966210279 80.0657128680361154  7.4897781405802428
 -7.1967212601001691 81.2746849662763964  7.4903675627864184
  9.1163444900923025 15.0976299322408991  7.4860493920547047
 11.2450175241234334 16.3102489570636990  7.4842571062635681
 13.3738388047404726 17.5227520680133608  7.4822356386563431
 15.5028634387643720 18.7350246494937096  7.4799724431371875
 17.6321465125270755 19.9469490012312818  7.4774467980588488
 19.7617419906709699 21.1584056954150626  7.4746295817920476
 21.8917051196897106 22.3692722695058848  7.4714825130068627
 24.0220845499353501 23.5794263634319030  7.4679589889131366
 -34.8315873110366141 63.1140139625140506  7.4608844578777811
 -32.7053331320955252 64.3193066295154381  7.4654812448931693
 -30.5796410663173290 65.5255245229007812  7.4695495510389627
 -28.4544280287313924 66.7325757667444464  7.4731391433149357
 -26.3296155268373937 67.9403457851924770  7.4762978308750414
 -24.2051208558796240 69.1487378945853237  7.4790696053695997
 -22.0808667584507674 70.3576380351391037  7.4814941070191257
 -19.9567751245870717 71.5669452831843387  7.4836060986529969
 -17.8327726972908600 72.7765471907278396  7.4854362631003353
 -15.7087881452526226 73.9863403448310635  7.4870103140745634
 -13.5847494010743084 75.1962303968791019  7.4883489915790573
 -11.4605871485580764 76.4061018030935770  7.4894670180721823
 -9.3362320280659148 77.6158563639366861  7.4903698757268939
 -7.2116170284414522 78.8253938822300029  7.4910548834802730
  6.9671365463454773 11.4368253651186738  7.4892630527123067
  9.0950499730928236 12.6491060478663897  7.4878354329703818
 11.2230136987719966 13.8614242977307907  7.4861702770300926
 13.3510866271949507 15.0736683207263216  7.4842626266583645
 15.4793261101271629 16.2857237369468635  7.4821001530724631
 17.6077908954753326 17.4974757000370893  7.4796631440830206
 19.7365386420289113 18.7088059636943704  7.4769231966464087
 21.8656275575864072 19.9195932156596172  7.4738435313757554
 23.9951141548903948 21.1297158558030418  7.4703789672088101
 26.1250553845926348 22.3390537927468635  7.4664766651433645
 -32.7289814120678244 61.8669904051346435  7.4631601581272022
 -30.6023265924875716 63.0731418618890345  7.4676515609137812
 -28.4761950570188986 64.2801920116371548  7.4716139247104145
 -26.3505091781616692 65.4880286710367159  7.4750990143828719
 -24.2251904705874423 66.6965515815088139  7.4781554402650938
 -22.1001627019532982 67.9056416418505506  7.4808280500865507
 -19.9753497130378115 69.1151983779456884  7.4831564599221920
 -17.8506796447391487 70.3251062544375714  7.4851755855876370
 -15.7260816521241225 71.5352599883086526  7.4869145858856738
 -13.6014835727233994 72.7455482995890463  7.4883975088273607
 -11.4768186173846232 73.9558687415258333  7.4896428906553565
 -9.3520187128609606 75.1661202505101471  7.4906614124828979
 -7.2270159868374506 76.3761919151639290  7.4914543880832074
 -5.1017457997551148 77.5859870155493923  7.4920137000359421
  4.8202743920566755  7.7768418321933508  7.4916155107733982
  6.9476077367726701  8.9885576203292139  7.4905949658119582
  9.0748836600128069 10.2004607091651263  7.4893242452948385
 11.2021626399624630 11.4124417502614861  7.4878076036527208
 13.3295053176483247 12.6243891628671907  7.4860410589512192
 15.4569720068047474 13.8361912904882089  7.4840130642099201
 17.5846238797579986 15.0477335777264596  7.4817044630934593
 19.7125226549090016 16.2589003010717050  7.4790880082988540
 21.8407293664490716 17.4695727469370468  7.4761280742603500
 23.9693056150257320 18.6796316119805859  7.4727809167269070
 26.0983116643094775 19.8889549069387641  7.4689957877210071
 -32.7539053422931588 59.4150982331393109  7.4604903015020829
 -30.6262497434360412 60.6211596258105700  7.4653799766951838
 -28.4991557779542575 61.8281835510709072  7.4696981920282219
 -26.3725483346812055 63.0360651357543418  7.4734990847753267
 -24.2463538787966399 64.2446925158729272  7.4768353218551873
 -22.1204968950491079 65.4539529205184323  7.4797560697360126
 -19.9949078814156600 66.6637265671645451  7.4823057461911979
 -17.8695111867678094 67.8739099838638680  7.4845228273238824
 -15.7442393638165079 69.0843863419573410  7.4864402492256730
 -13.6190225179467745 70.2950537149148857  7.4880841496076131
 -11.4937951503470508 71.5057935701394456  7.4894747458809245
 -9.3684876587108761 72.7165080171853191  7.4906256886666833
 -7.2430370559013539 73.9270826436570161  7.4915421316182735
 -5.1173762019205427 75.1374187597595125  7.4922197048245627
  2.6753547768195216  4.1180118536937194  7.4930250560604135
  4.8023182972082621  5.3289415810623408  7.4924361725195192
  6.9291083809641378  6.5402054117287856  7.4915816470328158
  9.0557869932916724  7.7516954187339113  7.4904730160367761
 11.1824171284945493  8.9633030515909553  7.4891154935054196
 13.3090605061615204 10.1749182422219704  7.4875061281274915
 15.4357809540559749 11.3864305782974924  7.4856342466961543
 17.5626417549759033 12.5977274256687899  7.4834817358646122
 19.6897056196019697 13.8086951481634816  7.4810226292967563
 21.8170380451507242 15.0192179625900355  7.4782221701057869
 23.9447046232169214 16.2291785299162257  7.4750392159914076
 26.0727697925320534 17.4384568225445769  7.4714251507197122
 28.2012989669972427 18.6469346674807568  7.4673263679376998
 -30.6514376608498900 58.1696046882375271  7.4627956924780205
 -28.5233518043869516 59.3765801314724726  7.4674388115275647
 -26.3957876367886008 60.5844780801276741  7.4715326535828952
 -24.2686767250353341 61.7931799999259397  7.4751324613373109
 -22.1419473502174959 63.0025730567678082  7.4782913539072915
 -20.0155315915915786 64.2125422126844825  7.4810571380866602
 -17.8893581788691343 65.4229683107470095  7.4834723801410767
 -15.7633601543542916 66.6337401430177607  7.4855727842484052
 -13.6374699454473927 67.8447449638618423  7.4873871044457525
 -11.5116224596902903 69.0558769916110151  7.4889371807078273
 -9.3857519888502381 70.2670188693761304  7.4902370619580676
 -7.2597931849551216 71.4780679082279988  7.4912941849940431
 -5.1336822701159051 72.6889119477071688  7.4921066867707511
 -3.0073561823229582 73.8994465656383284  7.4926646032330328
  2.6587248242459003  1.6705881263223803  7.4933383430260507
  4.7852530884750450  2.8809931522160923  7.4929067960242950
  6.9115507762641188  4.0917698257894495  7.4922082518536692
  9.0376808654838801  5.3028113186386765  7.4912564846624567
 11.1637068633608667  6.5140101620840358  7.4900581847429635
 13.2896933586939170  7.7252578003335985  7.4886113328415531
 15.4157050528027764  8.9364449473000747  7.4869059323868168
 17.5418075256357220 10.1474621443216861  7.4849250057010570
 19.6680656218827394 11.3581969337191158  7.4826438279466601
 21.7945472150560740 12.5685364570394764  7.4800303515471169
 23.9213211727333572 13.7783653597825744  7.4770454965901640
 26.0484552065098853 14.9875671563496855  7.4736438094520841
 28.1760202889030182 16.1960255696582074  7.4697743375258465
 -30.6778879185686790 55.7184994143834302  7.4599890229726604
 -28.5487986319882907 56.9254001454787257  7.4649114434082069
 -26.4202581912578083 58.1332824551588985  7.4692615423635900
 -24.2922044414401412 59.3420318967730083  7.4730962361068336
 -22.1645709111971243 60.5515296736939632  7.4764711939724720
 -20.0372908168423862 61.7616551892737036  7.4794377079145775
 -17.9102999357305919 62.9722942659437450  7.4820411492624368
 -15.7835311481900931 64.1833288880169590  7.4843199665445495
 -13.6569197596710765 65.3946441359246222  7.4863050184107722
 -11.5304019147627095 66.6061291501701902  7.4880193768841483
 -9.4039146612551612 67.8176662879953511  7.4894783668023921
 -7.2773937036757417 69.0291488788105312  7.4906900078582499
 -5.1507778175323864 70.2404751592182066  7.4916536937324816
 -3.0240023507255813 71.4515246416071648  7.4923617840329904
  6.8948351180852674  1.6432530014820297  7.4924808355215804
  9.0204707544722265  2.8538106027931405  7.4916718982560582
 11.1459458893298020  4.0645660844339302  7.4906224040158591
 13.2713253326047091  5.2754123816361664  7.4893326702961511
 15.3966757417778553  6.4862411727810265  7.4877933319531929
 17.5220629937759469  7.6969447883635098  7.4859881770417864
 19.6475569224730080  8.9074136386723382  7.4838946657651881
 21.7732245759933676 10.1175372128915395  7.4814830139654624
 23.8991372482233970 11.3272032502687026  7.4787176551858643
 26.0253668096908370 12.5362986720608465  7.4755563721206899
 28.1519861294269909 13.7447091955601710  7.4719518870840433
 30.2790681740470937 14.9523207005775038  7.4678526516966555
 -28.5754821812841584 54.4746583511005014  7.4622231816086053
 -26.4459641669851564 55.6824984562625360  7.4667792025762525
 -24.3169563536451037 56.8912617382718508  7.4708066438946030
 -22.1884002724056586 58.1008310611033565  7.4743631072762744
 -20.0602337488689386 59.3110828753400554  7.4775029002730751
 -17.9323945322931699 60.5218981703500845  7.4802734524152781
 -15.8048206419727251 61.7331592881992322  7.4827152331529234
 -13.6774489880920598 62.9447454387547083  7.4848608629089997
 -11.5502186481158411 64.1565432215256379  7.4867345315596259
 -9.4230687702552700 65.3684448945195129  7.4883524159974657
 -7.2959379986782515 66.5803327006913435  7.4897230343621262
 -5.1687646780065180 67.7920935076299003  7.4908478405370538
 -3.0414887512322935 69.0036266407765027  7.4917194450819879
 -0.9140474657198254 70.2148179508354815  7.4923241459338792
 11.1290324134678968  1.6149735263648948  7.4908178963581218
 13.2538618355849032  2.8253868335274110  7.4896706175676666