 C 
 1.0000000000000000
    91.1355836255399083    0.0000000000000000    0.0000000000000000
   -45.5678025146475534   78.9257434019060469    0.0000000000000000
     0.0000000000000000    0.0000000000000000   19.0000000000000000
 C  
 5548
Cartesian
 45.9161867812187765 76.8038603090214309  7.4930391019182192
 -43.0875659627736383 78.0033342848294069  7.4930419270856810
 -40.9561428400782503 79.2035191808204786  7.4922037596233082
 43.7579855120053551 73.1591991034661788  7.4905192734804285
 45.8902415803362231 74.3571532457675772  7.4917429359677650
 48.0217442814446542 75.5558838846651071  7.4921844762755399
 -40.9828293217558439 76.7553328121254737  7.4917997557187119
 -38.8521949651768423 77.9551679582927051  7.4905879285982380
 -36.7218513113913687 79.1553895594882704  7.4885866062708768
 41.5994040933684701 69.5173111062562299  7.4858027113838510
 43.7323656018081905 70.7134282061801827  7.4880145132453855
 45.8645387764234940 71.9104278216390753  7.4896069946140891
 47.9960223577191982 73.1083794096174557  7.4904647266479749
 -41.0088607129753271 74.3069723276663439  7.4905348989954490
 -38.8786080088035888 75.5062416142078234  7.4898235193716802
 -36.7487871953808352 76.7057334480748949  7.4883337314640324
 -34.6191447882151593 77.9055604463834470  7.4860948206591837
 -32.4897399157381699 79.1053315342803529  7.4831074668400532
 39.4397340585468612 65.8780792308556471  7.4793799090322164
 41.5736966517284685 67.0723610165949538  7.4822204087862954
 43.7067777482960267 68.2676777849891891  7.4847050838115452
 45.8390464903785713 69.4637681770611550  7.4866422639799000
 47.9705621785406322 70.6607874360120007  7.4879120649334094
 50.1011152227081809 71.8585454618900457  7.4884530066161741
 -38.9045335123674150 73.0571217483626185  7.4882316160507179
 -36.7750332666823567 74.2559956472791356  7.4872810790170092
 -34.6459365714641407 75.4551090145517094  7.4855947559457379
 -32.5170201544027151 76.6544676186375540  7.4832168032550150
 -30.3882294805549336 77.8537497956141351  7.4801466008733364
 -28.2593885065762329 79.0527796380113301  7.4763831729825059
 37.2782612719809450 62.2415583034508728  7.4718618398477643
 39.4134668385598701 63.4340652310653113  7.4748636181511987
 41.5477202629188653 64.6275546553747375  7.4778428254001827
 43.6810147343249824 65.8219875063646356  7.4805724259154340
 45.8134407409816333 67.0171968682066250  7.4828565194609373
 47.9449827390487187 68.2133316101896696  7.4845457849508845
 50.0756558919803680 69.4101959912500774  7.4855662166762373
 -38.9300552773089166 70.6078615229010325  7.4858781942803088
 -36.8008291399290073 71.8060098098788586  7.4854594963864791
 -34.6720674011361680 73.0046589659471294  7.4843525330234524
 -32.5435914349724271 74.2034062084089356  7.4825982200614272
 -30.4153194953943853 75.4023127917237446  7.4801935238257879
 -28.2871079346085992 76.6011153911243241  7.4771452338515205
 -26.1587441269268304 77.7994111340138659  7.4734667519362636
 -24.0300478443546162 78.9973257639514941  7.4690937806968050
 35.1145081779746917 58.6072323053100561  7.4640083972352356
 37.2509441940414376 59.7984438528028974  7.4665990950062300
 39.3865188716595043 60.9901658170727359  7.4695614032132882
 41.5211906812314808 62.1827506956947076  7.4726379812948300
 43.6548595600753089 63.3762275316883077  7.4756056779624096
 45.7875590776913057 64.5705995608606003  7.4782157007644372
 47.9192463157858768 65.7656921863358690  7.4803593793117971
 50.0500519350632587 66.9617957311097030  7.4818880586058141
 52.1799872433008645 68.1586056461594438  7.4827443280922390
 -36.8263909932971814 69.3560073337322507  7.4829205081262895
 -34.6977685159994778 70.5540024039534046  7.4824267478261888
 -32.5695895794079675 71.7522051154500389  7.4813126775014736
 -30.4417130264730815 72.9506057076762460  7.4795771591939602
 -28.3139928805296393 74.1490557572766562  7.4772782502576982
 -26.1862535098299567 75.3473520498118319  7.4743945634536590
 -24.0582945245922843 76.5453089327084371  7.4709192326791829
 -21.9299469835061984 77.7425158626237760  7.4668251285008811
 -19.8010692630185012 78.9391817758360474  7.4620419568785161
 32.9482498490732354 54.9741774673370571  7.4565462067113417
 35.0857380430738033 56.1645815684872218  7.4581600301533317
 37.2225657352473505 57.3551497019986130  7.4605133118184401
 39.3586306303393769 58.5462178995658604  7.4634044829571886
 41.4938215381183184 59.7379555378644795  7.4665667520685144
 43.6279671894338250 60.9304476544596696  7.4697586107802225
 45.7610264907060440 62.1239176142412717  7.4727460335015579
 47.8931105001199384 63.3182555263939619  7.4753283062406952
 50.0241894689356101 64.5133139670712836  7.4774055693355574
 52.1543308937784929 65.7092998455710955  7.4788561480973739
 -36.8519610125669672 66.9060041072579565  7.4796744828627242
 -34.7234115744566054 68.1031869069106790  7.4798374752531425
 -32.5953730401936710 69.3008348028212708  7.4793916759433445
 -30.4676808079427488 70.4988104873446133  7.4783682109273908
 -28.3402930472422838 71.6968883044499563  7.4768064028889105
 -26.2130005506824553 72.8949012931415581  7.4747353395769105
 -24.0856359698285836 74.0926885955258143  7.4721302600495090
 -21.9579733957228171 75.2900964960010697  7.4689845419411247
 -19.8298659957893655 76.4869165247107219  7.4652483904850238
 -17.7011571249334345 77.6831464233808049  7.4608862752078275
 -15.5716844546716651 78.8785344924339711  7.4558426879540489
 30.7793382862563263 51.3417391589947130  7.4501272972047534
 32.9178676614496908 52.5317674021918535  7.4503141206777128
 35.0558351127688042 53.7216746971466819  7.4515114030398557
 37.1931437660814979 54.9117638038783014  7.4536066529941376
 39.3296639612187562 56.1021364816663706  7.4563718255815550
 41.4653735886702322 57.2930784057185534  7.4595981068680999
 43.6000607966858809 58.4847565174679005  7.4629934775505564
 45.7336303537852160 59.6773165838467889  7.4663479124805114
 47.8662013751623050 60.8706970486949857  7.4694311329394951
 49.9977142362223077 62.0648684877032650  7.4720927284405070
 52.1281858618909339 63.2599505104540540  7.4742085210486069
 54.2577590195915604 64.4558471681414460  7.4757191828012735
 -34.7491217269653916 65.6523551165222159  7.4766093901016752
 -32.6210206337045605 66.8493456101469974  7.4768838517394816
 -30.4934650932137217 68.0467634330609030  7.4766146434728133
 -28.3662282132872008 69.2445524813543756  7.4758149979726802
 -26.2392505643696161 70.4422873090855148  7.4745312624424063
 -24.1122403405410850 71.6400725784960315  7.4727812914473359
 -21.9851499103473174 72.8374565161742140  7.4705608146252116
 -19.8576274242606914 74.0344719818274797  7.4678327962789632
 -17.7296542628162790 75.2309359434331384  7.4645393633859873
 -15.6009677915626099 76.4268147805057083  7.4606533235646140
 -13.4714729515702984 77.6217756146839548  7.4561213285543912
 -11.3410057761804097 78.8158814315564626  7.4509764678009018
 28.6079821937665955 47.7089934244460636  7.4452649426690716
 30.7472010139850198 48.8992108410401940  7.4437713471115554
 32.8861645212754681 50.0889847619745012  7.4433842882539292
 35.0245764837387838 51.2785224588922546  7.4440896251155744
 37.1623922062422025 52.4681063399634198  7.4458408378464300
 39.2994563792715326 53.6579574266415449  7.4484514953141456
 41.4356721353578266 54.8481865743660464  7.4516988244058204
 43.5709359536900038 56.0390542707086183  7.4553228490259524
 45.7052012106775294 57.2306914002700395  7.4590426778923176
 47.8383116132384316 58.4231171472733379  7.4626330683870927
 49.9703954351007980 59.6164991661919288  7.4659110521498953
 52.1013337939960124 60.8107022602443479  7.4687510894281166
 54.2313149532610694 62.0056735979245701  7.4710288628396135
 -34.7752188026269096 63.2014070325367001  7.4727021424001947
 -32.6469756553318220 64.3978530148273194  7.4737980903117727
 -30.5193061247299156 65.5946725840451705  7.4743233718647391
 -28.3920922222756040 66.7920284488380531  7.4743327235165822
 -26.2651877931660849 67.9895873617174828  7.4738674844603983
 -24.1384416026867115 69.1871481166644315  7.4729642159476635
 -22.0116326087408609 70.3845893946471932  7.4716284104586501
 -19.8846053890069463 71.5817958018892995  7.4698451823240637
 -17.7571512914481104 72.7785122325469160  7.4675736269318955
 -15.6291513719869677 73.9747910354278844  7.4647746552006149
 -13.5003938644250319 75.1703009633520338  7.4613803682815947
 -11.3707775037854262 76.3649979780827550  7.4573790781110025
 -9.2401420914190879 77.5587808052891319  7.4527926107825877
 -7.1084324380136010 78.7517418487907861  7.4477227881315100
 26.4345393027503803 44.0749488290941969  7.4423320965303166
 28.5741119963357484 45.2659905757857643  7.4391442205300784
 30.7136267327258210 46.4562633030016698  7.4369274381169479
 32.8529021712827642 47.6458812082503798  7.4358428671119254
 34.9918097111984139 48.8351821987377122  7.4359740311869444
 37.1302208080029601 50.0242653570298756  7.4372954260872142
 39.2678468555558311 51.2135502683007786  7.4396779882374453
 41.4046771324165945 52.4031625510416035  7.4428906670487711
 43.5405986387890351 53.5931979262760123  7.4466935297831789
 45.6755126089456667 54.7840133616233089  7.4507724339724630
 47.8093388476166723 55.9756278767722222  7.4548981015437388
 49.9420114578290750 57.1680733821853622  7.4588471077607545
 52.0736416131965427 58.3614058441827126  7.4624428167185020
 54.2041269112144803 59.5556190204127986  7.4655644508295893
 56.3336289831641466 60.7505909552306633  7.4681390030135395
 -32.6732548021498772 61.9463497159348009  7.4700996647915954
 -30.5453608745834231 63.1426922175610983  7.4714990297291264
 -28.4180175103828105 64.3394466891471382  7.4723677783444078
 -26.2910542538392207 65.5367311439142526  7.4727503096632653
 -24.1643787770254406 66.7342171294059341  7.4727002505246993
 -22.0377282662053702 67.9316317632019206  7.4722402538462562
 -19.9109632872998930 69.1289945855916557  7.4713625482352537
 -17.7839415792499800 70.3260262708277111  7.4700489325702870
 -15.6563886838926649 71.5225540187094850  7.4682445755127054
 -13.5282570295011517 72.7186632939757658  7.4658959080268961
 -11.3992926158823842 73.9139641546468908  7.4629831538877012
 -9.2694361072851521 75.1085315294462248  7.4594873603658574
 -7.1385488244740145 76.3022001689613347  7.4554398218964542
 -5.0065441438210172 77.4949019886303603  7.4509677782806953
 -2.8734269749905010 78.6867738580475162  7.4462018859261807
 24.2592625054780449 40.4390655804788466  7.4413601998986412
 26.3990282897390891 41.6313866243039215  7.4367975931329102
 28.5388520275660333 42.8225676230900163  7.4328500561962159
 30.6786209668651288 44.0128307033752719  7.4298051863572612
 32.8182422717156257 45.2023432684559623  7.4279183842462331
 34.9576408153710076 46.3913702679328779  7.4273350966859555
 37.0964891024810015 47.5801830191330311  7.4280967754853844
 39.2347537881799582 48.7689429819316231  7.4301417196805852
 41.3722472817716280 49.9579104039413693  7.4332540637309199
 43.5088268480159499 51.1473835782650994  7.4371751460208841
 45.6444137207554306 52.3374248303950083  7.4415868859308576
 47.7789486371238752 53.5281773868834705  7.4462168771375312
 49.9124615952890380 54.7197632072894109  7.4508421778187106
 52.0447808113132027 55.9122355073887363  7.4552611910127426
 54.1759350096751007 57.1056207485803782  7.4592833944937880
 56.3060702780026503 58.2998605752642902  7.4628167484263495
 -32.7002987941227943 59.4948625230765842  7.4657642668424371
 -30.5719516611432951 60.6906443550267340  7.4681109702580661
 -28.4442625223420222 61.8870418313045576  7.4699218990212728
 -26.3170936206061725 63.0839125822930882  7.4712008212034906
 -24.1902761698985458 64.2812060612899785  7.4720202979409711
 -22.0636102295818084 65.4786347079706132  7.4724276907873186
 -19.9369934339553581 66.6759973843839759  7.4724300077235695
 -17.8101417283796124 67.8732816330998929  7.4720234141510087
 -15.6829589844731032 69.0702806206620323  7.4711523555318573
 -13.5552415649695916 70.2668496104980989  7.4697760391103412
 -11.4267915713221697 71.4627826114367508  7.4678628612811009
 -9.2975530678060068 72.6580356223708037  7.4653576453916415
 -7.1673402577753436 73.8525460977894141  7.4622753653594973
 -5.0360973934011781 75.0460941839002516  7.4586953765392776
 -2.9037256944912997 76.2388515099690522  7.4547075414703263
 -0.7702674153904852 77.4305688845353188  7.4504888169098162
  1.3643071607435502 78.6216611002299146  7.4462221020838744
 22.0826485450244512 36.8008342472315420  7.4421320941069151
 24.2223102315765395 37.9947408300994383  7.4366435351799316
 26.3622322364861432 39.1872912950060623  7.4313589279414556
 28.5022235840376830 40.3786424600698837  7.4265938070565545
 30.6422499173427738 41.5689215251547282  7.4226580308218821
 32.7821976119863194 42.7584068763428533  7.4198552355328227
 34.9218711994834123 43.9472994737458862  7.4184346390216778
 37.0611862149993101 45.1358047603540484  7.4185056659444975
 39.2000406931831407 46.3241343677459412  7.4200481151116486
 41.3381838524712180 47.5126186397391947  7.4229183127380853
 43.4754982174214888 48.7013735619746768  7.4268487065640505
 45.6118759920811740 49.8907020890445452  7.4315373851766182
 47.7471768925021820 51.0806611418234198  7.4366547575303548
 49.8814695551295770 52.2714729550289547  7.4419407206646833
 52.0145948675698264 53.4631420570463192  7.4471655391278384
 54.1465662777544736 54.6557137941584017  7.4521635189915001
 56.2775159659995268 55.8491738039596015  7.4567066398723023
 58.4073836379489606 57.0435078571020355  7.4607146158398541
 -30.5992551454345083 58.2386988641138998  7.4641151777359731
 -28.4710600790353467 59.4346597371143233  7.4669274044797964
 -26.3434990209390030 60.6311560023394307  7.4691754169422584
 -24.2163749438148663 61.8281954024247469  7.4709292905651878
 -22.0895399737823048 63.0255427227919043  7.4722303931028708
 -19.9628267813042086 64.2230125644837528  7.4730803027222521
 -17.8360410508714402 65.4205669141564670  7.4735235163953044
 -15.7090258605782331 66.6179018649888093  7.4735213173871502
 -13.5815578719663002 67.8149227850181830  7.4730371121532455
 -11.4535124640450761 69.0114519413716323  7.4720290856942624
 -9.3246820539223556 70.2074515843537341  7.4704348218267507
 -7.1950325368887889 71.4026498654009600  7.4682547498974339
 -5.0643902821810158 72.5971313916196834  7.4655200939876734
 -2.9326909808061998 73.7907428851185330  7.4622849354958571
 -0.7998993729136998 74.9834070171270923  7.4586954015040989
  1.3339569266446389 76.1753325320192829  7.4548950906611902
  3.4688751759978018 77.3663359429363453  7.4510956424676280
  5.6048241533976864 78.5567238323019126  7.4475651292789902
 19.9051811823409466 33.1600335635286712  7.4445561609396451
 22.0445879634942266 34.3556979691116240  7.4385058565648157
 24.1843126999828399 35.5498680030875889  7.4323016656917309
 26.3242600925255665 36.7426152045568841  7.4262592516673003
 28.4643613895105219 37.9341796690715327  7.4206383933829700
 30.6045738219854400 39.1245651068472498  7.4157660172814746
 32.7447369268991366 40.3140706022195303  7.4119772101762855
 34.8847459347437976 41.5027854462313641  7.4095874550078440
 37.0245269221546067 42.6910702340694996  7.4087975980079026
 39.1637844367669459 43.8790417519188622  7.4096708064442867
 41.3025468039262478 45.0671168644165618  7.4121243382570485
 43.4405522400499962 46.2552993191503390  7.4159339437311411
 45.5777168767606611 47.4439976531434695  7.4207672558574380
 47.7138494962623838 48.6332247973397997  7.4262625291553261
 49.8489950761372356 49.8232506754958848  7.4321748610512763
 51.9829876185820439 51.0141215276553126  7.4382131405467291
 54.1159087970077906 52.2058938130464441  7.4441587159794818
 56.2476688286693260 53.3986742536802765  7.4497880687971376
 58.3783704335549061 54.5923739601861868  7.4549216416495643
 -30.6275163734070475 55.7869655785042013  7.4594586117015185
 -28.4986848259581080 56.9823935900894725  7.4633527589953061
 -26.3705347545336508 58.1785782642759912  7.4666426212045014
 -24.2429397660874670 59.3753527784715160  7.4693695473445283
 -22.1157634764806375 60.5725947119270174  7.4715806268676115
 -19.9887731648965925 61.7702112941411201  7.4733065351710763
 -17.8618647814506453 62.9678583872610744  7.4745880939741305
 -15.7348264086171099 64.1654418012474821  7.4754051146166285
 -13.6074701589599982 65.3629354400721638  7.4757421350837960
 -11.4796210009524948 66.5600374262925385  7.4755542257368512
 -9.3511317552319220 67.7567241389034649  7.4747926868774224
 -7.2218384319609044 68.9528126538565260  7.4734344586369286
 -5.0916739407426093 70.1481203705587575  7.4714720493221680
 -2.9605325719404263 71.3427176298513643  7.4689348422430442
 -0.8283081614416901 72.5362247788649768  7.4659382289128633
  1.3049428164758297 73.7289862453229574  7.4626128429438356
  3.4392439818596472 74.9208419767429774  7.4591477705663918
  5.5745713838469229 76.1121161238720845  7.4557565225193647
  7.7108459579178614 77.3025613348209646  7.4526903881919893
  9.8480125791547053 78.4925533295434263  7.4502436440294098
 17.7274901310794277 29.5166035748641384  7.4486157057493489
 19.8664513815292949 30.7140248833719625  7.4423424227927315
 22.0057541553804406 31.9099727857965085  7.4356211471423972
 24.1453746636386590 33.1044306275193421  7.4286619444870006
 26.2852855170395259 34.2974701758479981  7.4217713746163838
 28.4254055090823954 35.4891740750747502  7.4152518474266520
 30.5656976249709160 36.6797012724161604  7.4094082004067925
 32.7060377627343399 37.8691909603737926  7.4045824097174231
 34.8463480345709158 39.0578797060472596  7.4011385710142354
 36.9863928020512844 40.2459994360716564  7.3993311641988386
 39.1261710524731399 41.4337591634702846  7.3993583342383644
 41.2653519022750572 42.6214383761578191  7.4011971023331702
 43.4040509482920385 43.8092000789926104  7.4046693137023301
 45.5419385582255529 44.9972527639391586  7.4094976348762991
 47.6789227627977326 46.1858140897184626  7.4152775407043405
 49.8149595636230771 47.3750939667070128  7.4217061710619241
 51.9498757490773428 48.5652969116514228  7.4284832265449969
 54.0837354850841479 49.7563464289878183  7.4353562570095200
 56.2164272578075952 50.9483951538221689  7.4420497454983323
 58.3480635788971256 52.1413770287570415  7.4483495803218922
 60.4786353377906920 53.3354156173466478  7.4540731245839549
 -28.5272757419481700 54.5303438147673631  7.4591381184304684
 -26.3984144291393008 55.7261470365293690  7.4635419100530376
 -24.2701914231056008 56.9226325875829602  7.4672957082845777
 -22.1424699881014284 58.1198093778698848  7.4704546482543748
 -20.0150743873732324 59.3173786142069090  7.4730674777665769
 -17.8878369288016437 60.5151900005309997  7.4751863533700496
 -15.7605957222109510 61.7131557402052024  7.4768034319822698
 -13.6331818819047328 62.9110198736386224  7.4779020555320388
 -11.5053863855489418 64.1087655022876675  7.4784751272026169
 -9.3770538814673330 65.3060787331423427  7.4784614043658122
 -7.2480083007833223 66.5028474987240799  7.4778407714728052
 -5.1181553830239750 67.6990553559342345  7.4765769049026485
 -2.9874126945816002 68.8944492535648152  7.4747050775995181
 -0.8557003542654158 70.0889605863714849  7.4722789735691180
  1.2770794077541581 71.2826471502443297  7.4694111878046030
  3.4108640989117944 72.4754622166980482  7.4662454252771733
  5.5456198443548246 73.6674143954343066  7.4630206680312199
  7.6813553648635207 74.8587168491272621  7.4599709345696228
  9.8179657421559980 76.0493186912926973  7.4573285765954358
 11.9553589831526637 77.2396142374374222  7.4553521998107266
 14.0933326062441964 78.4296314701965400  7.4542195274484273
 15.5503574059501428 25.8707487397838243  7.4540765549341117
 17.6886007302620243 27.0698374161858695  7.4479499718841895
 19.8272527623906996 28.2675291589265676  7.4411291827103927
 21.9663377975194649 29.4637548851249917  7.4337300417495742
 24.1057627353223189 30.6584843091214800  7.4259961606924723
 26.2455212710391201 31.8517446051059778  7.4182356445610393
 28.3855713893699644 33.0436581528222248  7.4107547769872895
 30.5258457591531318 34.2343548114322616  7.4038977424880512
 32.6662397782875118 35.4239311333980282  7.3979960787620884
 34.8067148028642919 36.6125808208375005  7.3934071769701921
 36.9470199148639651 37.8005872045435467  7.3904955597940818
 39.0871445709010032 38.9881521674101776  7.3894894226254300
 41.2268705963104480 40.1755482433758502  7.3905201617622609
 43.3660873467943233 41.3629155407341997  7.3934581870182363
 45.5046277513862663 42.5505210423935623  7.3980549780643159
 47.6424398744871951 43.7385454108372826  7.4039224262499230
 49.7793414294160641 44.9271748597103695  7.4107384452538145
 51.9151639981845960 46.1166160459762153  7.4181455239902947
 54.0500103700228891 47.3069840719884667  7.4258532345801651
 56.1837350243946076 48.4983342553515300  7.4335832148240044
 58.3163786319550042 49.6906882988221383  7.4410163541079264
 60.4479242393759364 50.8840978315804620  7.4479513992535544
 -28.5570543238240333 52.0785509878280521  7.4542127257903070
 -26.4273348853457364 53.2739250248424554  7.4597910832399101
 -24.2983411531752580 54.4701917006155583  7.4646209411271931
 -22.1699409589853857 55.6671555793328352  7.4687873335115338
 -20.0419517567628098 56.8647437600916206  7.4723347765182373
 -17.9142412645561748 58.0627166654659561  7.4752900770605191
 -15.7866299007399178 59.2609230785657672  7.4776690015694465
 -13.6589484184377099 60.4592157178873109  7.4795056115884790
 -11.5310132532572212 61.6574386776259544  7.4807825351745523
 -9.4026525629951472 62.8554510775996178  7.4814625660637173
 -7.2737154685928935 64.0529638005989881  7.4814992748725144
 -5.1440763066053279 65.2500213672374372  7.4808888598348560
 -3.0136082486527229 66.4462066968899734  7.4796154077214618
 -0.8822267255083958 67.6416826552064805  7.4777138803575163
  1.2501111093823383 68.8363356385594471  7.4752817198233972
  3.3834640305302202 70.0300342026818186  7.4724476707613290
  5.5177906594121851 71.2228860088331288  7.4693903724236561
  7.6530444873554728 72.4149248266525092  7.4663505850630205
  9.7891497775153553 73.6063178338195883  7.4635769158443654
 11.9260958746434440 74.7971000154919352  7.4613127346918926
 14.0636985948631690 75.9875039600120203  7.4597878971434177
 16.2017619662711567 77.1779126007353966  7.4591357471593991
 18.3401627666623028 78.3685545647078783  7.4594636666580563
 13.3746519470453986 22.2228712189687165  7.4607211655938697
 15.5119571767370825 23.4233502625368466  7.4549269437910022
 17.6497140201626372 24.6226219940719488  7.4483484232943438
 19.7879046581280136 25.8205370959680458  7.4410158095188761
 21.9265855269591654 27.0170201387308460  7.4330260255132945
 24.0657082119331136 28.2120180727982763  7.4245739413278766
 26.2052163685510742 29.4055193488535487  7.4159570777870290
 28.3450784732749490 30.5976500985866764  7.4075178794914711
 30.4852356551303352 31.7884953331188989  7.3995871401059929
 32.6256044452319856 32.9781610067144726  7.3925639933353322
 34.7660712579044571 34.1668827814088090  7.3867882641672686
 36.9066018734387029 35.3548451492665876  7.3826568343804473
 39.0469802561702579 36.5422956074657534  7.3805017488937663
 41.1870717556070218 37.7294537372259953  7.3805072455543490
 43.3267880771604439 38.9165299366915036  7.3826736794397592
 45.4659407013775194 40.1037572803124149  7.3868222909829271
 47.6044513830549647 41.2913201307263833  7.3925912985885107
 49.7421372404748325 42.4793414623046957  7.3995921675717113
 51.8789781295126744 43.6681447170103354  7.4074777110662815
 54.0147497380791037 44.8578702307002786  7.4158902791569217
 56.1495063370722178 46.0485508716591454  7.4245203277681604
 58.2832254548053683 47.2403498376119586  7.4330179034964301
 60.4158792933962729 48.4331604582433641  7.4411237621389708
 62.5474835530246196 49.6270460231043131  7.4486101486914809
 -26.4574306356958324 50.8220420407313469  7.4553446465080659
 -24.3275391735098658 52.0179669863701903  7.4613124987972999
 -22.1983305289487305 53.2148170334042234  7.4665133629838705
 -20.0696294195680203 54.4123308352166717  7.4710043164025040
 -17.9412793856646999 55.6104130983358971  7.4748101122517276
 -15.8131400659587023 56.8088647302613268  7.4779835946624873
 -13.6850144739222053 58.0075412360032274  7.4805371152463298
 -11.5567730044924666 59.2062378863858001  7.4824815443056591
 -9.4282345090189494 60.4048138300234498  7.4837975375220758
 -7.2992456548209042 61.6030855614294452  7.4844611436247019
 -5.1696380067276486 62.8008894220118634  7.4844394931846505
 -3.0393057215487147 63.9980470068833966  7.4837190450385442
 -0.9081641877300228 65.1944316986694758  7.4823114748923798
  1.2238840103276871 66.3899218772579331  7.4802816481173995
  3.3568841994137770 67.5845608090142491  7.4777535430052238
  5.4908505522998539 68.7782983893612254  7.4748979436139429
  7.6257013696988452 69.9711637921812439  7.4718997128777875
  9.7614429799946905 71.1632925203283264  7.4690256966411628
 11.8979744268617225 72.3547022766393155  7.4665123724608256
 14.0351617702364209 73.5456072514643466  7.4646256554722852
 16.1729082046268147 74.7364083511234298  7.4635398273796643
 18.3110334918659419 75.9271762967017025  7.4633541968218093
 20.4493199976026503 77.1181775344793010  7.4641147496603866
 22.5877141050016590 78.3096765147078600  7.4657529897183741
 11.2011096991285903 18.5734803647137845  7.4681303753459085
 13.3373243271873339 19.7749797171684776  7.4628167201945876
 15.4739407874115766 20.9755290805015093  7.4567078520895711
 17.6110599013263069 22.1749683696572291  7.4497912553356196
 19.7486925478934303 23.3730975691457310  7.4420540530120158
 21.8868432301354545 24.5698153560380064  7.4335777231571649
 24.0255062751257924 25.7650424913269873  7.4245220988738136
 26.1646315495225039 26.9588076933783150  7.4151437103514164
 28.3041944009680684 28.1511587967835908  7.4058013194599539
 30.4440978150104229 29.3421640271039479  7.3968314534029140
 32.5843679225878162 30.5319938717483339  7.3886471443679023
 34.7247108162748788 31.7208034911540224  7.3816592567667536
 36.8652370965698424 32.9087543869329551  7.3762569169243610
 39.0058059483807611 34.0961890886989352  7.3728206281439421
 41.1461690174842474 35.2831497947907948  7.3716417917363692
 43.2863243754125619 36.4700583693536302  7.3728290483304351
 45.4259957569214805 37.6569493064075473  7.3762727685690397
 47.5651268395388058 38.8441278752127772  7.3816791039856300
 49.7035859931936770 40.0317012492815039  7.3886705484345709
 51.8412477831321894 41.2199786649669946  7.3968413754346907
 53.9779693618937841 42.4090843771877104  7.4057865513324463
 56.1137675622783476 43.5991252405814791  7.4151556499728164
 58.2485843827407876 44.7902442938109147  7.4245761010130620
 60.3822303911205509 45.9825394795247320  7.4337207364759843
 62.5150260500655719 47.1759448097783007  7.4423469454952338
 -26.4888510545941607 48.3705183464957358  7.4502393644717664
 -24.3579716378536304 49.5661853193040685  7.4573271807277877
 -22.2278042368574091 50.7627648159540641  7.4635782501546064
 -20.0982535719890905 51.9601826761135328  7.4690252049450940
 -17.9691250703842655 53.1583286878168835  7.4736908723907742
 -15.8403265794633317 54.3570393924221662  7.4776582904200719
 -13.7116538951217493 55.5560433135264446  7.4809300584039002
 -11.5829482390483598 56.7552530611337502  7.4835322582960631
 -9.4540637239666623 57.9543308845219798  7.4854454478132819
 -7.3248440162037198 59.1532943898080177  7.4866841793716423
 -5.1951334374837863 60.3518254880378819  7.4872059627427214
 -3.0647906806541840 61.5498270989647835  7.4870028738234380
 -0.9337285334777832 62.7471497808654277  7.4860582578771000
  1.1981445693894983 63.9436075235043262  7.4844436070669644
  3.3308971049706528 65.1391086589091231  7.4822331706914946
  5.4645446837262028 66.3337741569203416  7.4795633692735457
  7.5991051987743461 67.5274534451374535  7.4766418347742158
  9.7345059231309961 68.7203589106630943  7.4736980320875759
 11.8706897391045629 69.9125019039572493  7.4710024440843092
 14.0075807464972826 71.1039104394085086  7.4687971659036263
 16.1450330119311900 72.2950330361661599  7.4672867419169737
 18.2828721076079717 73.4860370166237971  7.4666479605089711
 20.4209570414296735 74.6771001939650745  7.4669312875698362
 22.5590961073244642 75.8686415826603593  7.4681144281509102
 24.6972055181124546 77.0606068625397995  7.4701034979532945
 26.8351732115003045 78.2532252777806860  7.4727157540707569
  9.0302738108618961 14.9231451387893390  7.4757242824948973
 11.1653483663544080 16.1252961947145650  7.4710308321092525
 13.3007734092358678 17.3267399580170576  7.4655736680205695
 15.4366246397005522 18.5273546500527395  7.4592922850388188
 17.5729932055861369 19.7268488739136529  7.4521536271337432
 19.7098737012944696 20.9251978845719790  7.4441680160259889
 21.8473776330636440 22.1220979933088984  7.4353521339388591
 23.9854204712464991 23.3176062927546113  7.4258534710733963
 26.1240286785294984 24.5116267126973533  7.4159012518244953
 28.2631306349570011 25.7041921528118813  7.4057910515884871
 30.4027064683830659 26.8954204802301646  7.3958785924033732
 32.5426747349955150 28.0854053900041976  7.3866093558585080
 34.6829186621561689 29.2743407225839185  7.3783903890060243
 36.8234082603207113 30.4623644806093381  7.3716810244435731
 38.9639137021856143 31.6497488493263610  7.3669003816111882
 41.1045006619245115 32.8367249571719384  7.3644128188309521
 43.2448941904706388 34.0234214474168652  7.3644047656040241
 45.3850203042633211 35.2100779877855175  7.3669138900452245
 47.5246736922852620 36.3969373999275945  7.3716973409326014
 49.6637999697680357 37.5841852225193591  7.3784000859515979
 51.8022158109098569 38.7719853404859691  7.3866127421831411
 53.9398383828662276 39.9605400413966763  7.3958801431468242
 56.0765889310745962 41.1500633081398917  7.4057951466824630
 58.2123963742809138 42.3406895611975784  7.4159526433033562
 60.3472247124134498 43.5323527177297365  7.4260058500407817
 62.4810453858025028 44.7252866490186705  7.4356154484353718