Generated by Twist2D
    1.0
      72.88159847       0.00000000       0.00000000
       0.00000000      54.04079819       0.00000000
       0.00000000       0.00000000      30.00000000
    P
    2116
Direct
     0.00000000     0.04869250     0.27054000
     0.00000000     0.13202583     0.27054000
     0.00000000     0.21535917     0.27054000
     0.00000000     0.29869250     0.27054000
     0.00000000     0.38202583     0.27054000
     0.00000000     0.46535917     0.27054000
     0.00000000     0.54869250     0.27054000
     0.00000000     0.63202583     0.27054000
     0.00000000     0.71535917     0.27054000
     0.00000000     0.79869250     0.27054000
     0.00000000     0.88202583     0.27054000
     0.00000000     0.96535917     0.27054000
     0.04545455     0.04869250     0.27054000
     0.04545455     0.13202583     0.27054000
     0.04545455     0.21535917     0.27054000
     0.04545455     0.29869250     0.27054000
     0.04545455     0.38202583     0.27054000
     0.04545455     0.46535917     0.27054000
     0.04545455     0.54869250     0.27054000
     0.04545455     0.63202583     0.27054000
     0.04545455     0.71535917     0.27054000
     0.04545455     0.79869250     0.27054000
     0.04545455     0.88202583     0.27054000
     0.04545455     0.96535917     0.27054000
     0.09090909     0.04869250     0.27054000
     0.09090909     0.13202583     0.27054000
     0.09090909     0.21535917     0.27054000
     0.09090909     0.29869250     0.27054000
     0.09090909     0.38202583     0.27054000
     0.09090909     0.46535917     0.27054000
     0.09090909     0.54869250     0.27054000
     0.09090909     0.63202583     0.27054000
     0.09090909     0.71535917     0.27054000
     0.09090909     0.79869250     0.27054000
     0.09090909     0.88202583     0.27054000
     0.09090909     0.96535917     0.27054000
     0.13636364     0.04869250     0.27054000
     0.13636364     0.13202583     0.27054000
     0.13636364     0.21535917     0.27054000
     0.13636364     0.29869250     0.27054000
     0.13636364     0.38202583     0.27054000
     0.13636364     0.46535917     0.27054000
     0.13636364     0.54869250     0.27054000
     0.13636364     0.63202583     0.27054000
     0.13636364     0.71535917     0.27054000
     0.13636364     0.79869250     0.27054000
     0.13636364     0.88202583     0.27054000
     0.13636364     0.96535917     0.27054000
     0.18181818     0.04869250     0.27054000
     0.18181818     0.13202583     0.27054000
     0.18181818     0.21535917     0.27054000
     0.18181818     0.29869250     0.27054000
     0.18181818     0.38202583     0.27054000
     0.18181818     0.46535917     0.27054000
     0.18181818     0.54869250     0.27054000
     0.18181818     0.63202583     0.27054000
     0.18181818     0.71535917     0.27054000
     0.18181818     0.79869250     0.27054000
     0.18181818     0.88202583     0.27054000
     0.18181818     0.96535917     0.27054000
     0.22727273     0.04869250     0.27054000
     0.22727273     0.13202583     0.27054000
     0.22727273     0.21535917     0.27054000
     0.22727273     0.29869250     0.27054000
     0.22727273     0.38202583     0.27054000
     0.22727273     0.46535917     0.27054000
     0.22727273     0.54869250     0.27054000
     0.22727273     0.63202583     0.27054000
     0.22727273     0.71535917     0.27054000
     0.22727273     0.79869250     0.27054000
     0.22727273     0.88202583     0.27054000
     0.22727273     0.96535917     0.27054000
     0.27272727     0.04869250     0.27054000
     0.27272727     0.13202583     0.27054000
     0.27272727     0.21535917     0.27054000
     0.27272727     0.29869250     0.27054000
     0.27272727     0.38202583     0.27054000
     0.27272727     0.46535917     0.27054000
     0.27272727     0.54869250     0.27054000
     0.27272727     0.63202583     0.27054000
     0.27272727     0.71535917     0.27054000
     0.27272727     0.79869250     0.27054000
     0.27272727     0.88202583     0.27054000
     0.27272727     0.96535917     0.27054000
     0.31818182     0.04869250     0.27054000
     0.31818182     0.13202583     0.27054000
     0.31818182     0.21535917     0.27054000
     0.31818182     0.29869250     0.27054000
     0.31818182     0.38202583     0.27054000
     0.31818182     0.46535917     0.27054000
     0.31818182     0.54869250     0.27054000
     0.31818182     0.63202583     0.27054000
     0.31818182     0.71535917     0.27054000
     0.31818182     0.79869250     0.27054000
     0.31818182     0.88202583     0.27054000
     0.31818182     0.96535917     0.27054000
     0.36363636     0.04869250     0.27054000
     0.36363636     0.13202583     0.27054000
     0.36363636     0.21535917     0.27054000
     0.36363636     0.29869250     0.27054000
     0.36363636     0.38202583     0.27054000
     0.36363636     0.46535917     0.27054000
     0.36363636     0.54869250     0.27054000
     0.36363636     0.63202583     0.27054000
     0.36363636     0.71535917     0.27054000
     0.36363636     0.79869250     0.27054000
     0.36363636     0.88202583     0.27054000
     0.36363636     0.96535917     0.27054000
     0.40909091     0.04869250     0.27054000
     0.40909091     0.13202583     0.27054000
     0.40909091     0.21535917     0.27054000
     0.40909091     0.29869250     0.27054000
     0.40909091     0.38202583     0.27054000
     0.40909091     0.46535917     0.27054000
     0.40909091     0.54869250     0.27054000
     0.40909091     0.63202583     0.27054000
     0.40909091     0.71535917     0.27054000
     0.40909091     0.79869250     0.27054000
     0.40909091     0.88202583     0.27054000
     0.40909091     0.96535917     0.27054000
     0.45454545     0.04869250     0.27054000
     0.45454545     0.13202583     0.27054000
     0.45454545     0.21535917     0.27054000
     0.45454545     0.29869250     0.27054000
     0.45454545     0.38202583     0.27054000
     0.45454545     0.46535917     0.27054000
     0.45454545     0.54869250     0.27054000
     0.45454545     0.63202583     0.27054000
     0.45454545     0.71535917     0.27054000
     0.45454545     0.79869250     0.27054000
     0.45454545     0.88202583     0.27054000
     0.45454545     0.96535917     0.27054000
     0.50000000     0.04869250     0.27054000
     0.50000000     0.13202583     0.27054000
     0.50000000     0.21535917     0.27054000
     0.50000000     0.29869250     0.27054000
     0.50000000     0.38202583     0.27054000
     0.50000000     0.46535917     0.27054000
     0.50000000     0.54869250     0.27054000
     0.50000000     0.63202583     0.27054000
     0.50000000     0.71535917     0.27054000
     0.50000000     0.79869250     0.27054000
     0.50000000     0.88202583     0.27054000
     0.50000000     0.96535917     0.27054000
     0.54545455     0.04869250     0.27054000
     0.54545455     0.13202583     0.27054000
     0.54545455     0.21535917     0.27054000
     0.54545455     0.29869250     0.27054000
     0.54545455     0.38202583     0.27054000
     0.54545455     0.46535917     0.27054000
     0.54545455     0.54869250     0.27054000
     0.54545455     0.63202583     0.27054000
     0.54545455     0.71535917     0.27054000
     0.54545455     0.79869250     0.27054000
     0.54545455     0.88202583     0.27054000
     0.54545455     0.96535917     0.27054000
     0.59090909     0.04869250     0.27054000
     0.59090909     0.13202583     0.27054000
     0.59090909     0.21535917     0.27054000
     0.59090909     0.29869250     0.27054000
     0.59090909     0.38202583     0.27054000
     0.59090909     0.46535917     0.27054000
     0.59090909     0.54869250     0.27054000
     0.59090909     0.63202583     0.27054000
     0.59090909     0.71535917     0.27054000
     0.59090909     0.79869250     0.27054000
     0.59090909     0.88202583     0.27054000
     0.59090909     0.96535917     0.27054000
     0.63636364     0.04869250     0.27054000
     0.63636364     0.13202583     0.27054000
     0.63636364     0.21535917     0.27054000
     0.63636364     0.29869250     0.27054000
     0.63636364     0.38202583     0.27054000
     0.63636364     0.46535917     0.27054000
     0.63636364     0.54869250     0.27054000
     0.63636364     0.63202583     0.27054000
     0.63636364     0.71535917     0.27054000
     0.63636364     0.79869250     0.27054000
     0.63636364     0.88202583     0.27054000
     0.63636364     0.96535917     0.27054000
     0.68181818     0.04869250     0.27054000
     0.68181818     0.13202583     0.27054000
     0.68181818     0.21535917     0.27054000
     0.68181818     0.29869250     0.27054000
     0.68181818     0.38202583     0.27054000
     0.68181818     0.46535917     0.27054000
     0.68181818     0.54869250     0.27054000
     0.68181818     0.63202583     0.27054000
     0.68181818     0.71535917     0.27054000
     0.68181818     0.79869250     0.27054000
     0.68181818     0.88202583     0.27054000
     0.68181818     0.96535917     0.27054000
     0.72727273     0.04869250     0.27054000
     0.72727273     0.13202583     0.27054000
     0.72727273     0.21535917     0.27054000
     0.72727273     0.29869250     0.27054000
     0.72727273     0.38202583     0.27054000
     0.72727273     0.46535917     0.27054000
     0.72727273     0.54869250     0.27054000
     0.72727273     0.63202583     0.27054000
     0.72727273     0.71535917     0.27054000
     0.72727273     0.79869250     0.27054000
     0.72727273     0.88202583     0.27054000
     0.72727273     0.96535917     0.27054000
     0.77272727     0.04869250     0.27054000
     0.77272727     0.13202583     0.27054000
     0.77272727     0.21535917     0.27054000
     0.77272727     0.29869250     0.27054000
     0.77272727     0.38202583     0.27054000
     0.77272727     0.46535917     0.27054000
     0.77272727     0.54869250     0.27054000
     0.77272727     0.63202583     0.27054000
     0.77272727     0.71535917     0.27054000
     0.77272727     0.79869250     0.27054000
     0.77272727     0.88202583     0.27054000
     0.77272727     0.96535917     0.27054000
     0.81818182     0.04869250     0.27054000
     0.81818182     0.13202583     0.27054000
     0.81818182     0.21535917     0.27054000
     0.81818182     0.29869250     0.27054000
     0.81818182     0.38202583     0.27054000
     0.81818182     0.46535917     0.27054000
     0.81818182     0.54869250     0.27054000
     0.81818182     0.63202583     0.27054000
     0.81818182     0.71535917     0.27054000
     0.81818182     0.79869250     0.27054000
     0.81818182     0.88202583     0.27054000
     0.81818182     0.96535917     0.27054000
     0.86363636     0.04869250     0.27054000
     0.86363636     0.13202583     0.27054000
     0.86363636     0.21535917     0.27054000
     0.86363636     0.29869250     0.27054000
     0.86363636     0.38202583     0.27054000
     0.86363636     0.46535917     0.27054000
     0.86363636     0.54869250     0.27054000
     0.86363636     0.63202583     0.27054000
     0.86363636     0.71535917     0.27054000
     0.86363636     0.79869250     0.27054000
     0.86363636     0.88202583     0.27054000
     0.86363636     0.96535917     0.27054000
     0.90909091     0.04869250     0.27054000
     0.90909091     0.13202583     0.27054000
     0.90909091     0.21535917     0.27054000
     0.90909091     0.29869250     0.27054000
     0.90909091     0.38202583     0.27054000
     0.90909091     0.46535917     0.27054000
     0.90909091     0.54869250     0.27054000
     0.90909091     0.63202583     0.27054000
     0.90909091     0.71535917     0.27054000
     0.90909091     0.79869250     0.27054000
     0.90909091     0.88202583     0.27054000
     0.90909091     0.96535917     0.27054000
     0.95454545     0.04869250     0.27054000
     0.95454545     0.13202583     0.27054000
     0.95454545     0.21535917     0.27054000
     0.95454545     0.29869250     0.27054000
     0.95454545     0.38202583     0.27054000
     0.95454545     0.46535917     0.27054000
     0.95454545     0.54869250     0.27054000
     0.95454545     0.63202583     0.27054000
     0.95454545     0.71535917     0.27054000
     0.95454545     0.79869250     0.27054000
     0.95454545     0.88202583     0.27054000
     0.95454545     0.96535917     0.27054000
     0.00000000     0.03464083     0.19967000
     0.00000000     0.11797417     0.19967000
     0.00000000     0.20130750     0.19967000
     0.00000000     0.28464083     0.19967000
     0.00000000     0.36797417     0.19967000
     0.00000000     0.45130750     0.19967000
     0.00000000     0.53464083     0.19967000
     0.00000000     0.61797417     0.19967000
     0.00000000     0.70130750     0.19967000
     0.00000000     0.78464083     0.19967000
     0.00000000     0.86797417     0.19967000
     0.00000000     0.95130750     0.19967000
     0.04545455     0.03464083     0.19967000
     0.04545455     0.11797417     0.19967000
     0.04545455     0.20130750     0.19967000
     0.04545455     0.28464083     0.19967000
     0.04545455     0.36797417     0.19967000
     0.04545455     0.45130750     0.19967000
     0.04545455     0.53464083     0.19967000
     0.04545455     0.61797417     0.19967000
     0.04545455     0.70130750     0.19967000
     0.04545455     0.78464083     0.19967000
     0.04545455     0.86797417     0.19967000
     0.04545455     0.95130750     0.19967000
     0.09090909     0.03464083     0.19967000
     0.09090909     0.11797417     0.19967000
     0.09090909     0.20130750     0.19967000
     0.09090909     0.28464083     0.19967000
     0.09090909     0.36797417     0.19967000
     0.09090909     0.45130750     0.19967000
     0.09090909     0.53464083     0.19967000
     0.09090909     0.61797417     0.19967000
     0.09090909     0.70130750     0.19967000
     0.09090909     0.78464083     0.19967000
     0.09090909     0.86797417     0.19967000
     0.09090909     0.95130750     0.19967000
     0.13636364     0.03464083     0.19967000
     0.13636364     0.11797417     0.19967000
     0.13636364     0.20130750     0.19967000
     0.13636364     0.28464083     0.19967000
     0.13636364     0.36797417     0.19967000
     0.13636364     0.45130750     0.19967000
     0.13636364     0.53464083     0.19967000
     0.13636364     0.61797417     0.19967000
     0.13636364     0.70130750     0.19967000
     0.13636364     0.78464083     0.19967000
     0.13636364     0.86797417     0.19967000
     0.13636364     0.95130750     0.19967000
     0.18181818     0.03464083     0.19967000
     0.18181818     0.11797417     0.19967000
     0.18181818     0.20130750     0.19967000
     0.18181818     0.28464083     0.19967000
     0.18181818     0.36797417     0.19967000
     0.18181818     0.45130750     0.19967000
     0.18181818     0.53464083     0.19967000
     0.18181818     0.61797417     0.19967000
     0.18181818     0.70130750     0.19967000
     0.18181818     0.78464083     0.19967000
     0.18181818     0.86797417     0.19967000
     0.18181818     0.95130750     0.19967000
     0.22727273     0.03464083     0.19967000
     0.22727273     0.11797417     0.19967000
     0.22727273     0.20130750     0.19967000
     0.22727273     0.28464083     0.19967000
     0.22727273     0.36797417     0.19967000
     0.22727273     0.45130750     0.19967000
     0.22727273     0.53464083     0.19967000
     0.22727273     0.61797417     0.19967000
     0.22727273     0.70130750     0.19967000
     0.22727273     0.78464083     0.19967000
     0.22727273     0.86797417     0.19967000
     0.22727273     0.95130750     0.19967000
     0.27272727     0.03464083     0.19967000
     0.27272727     0.11797417     0.19967000
     0.27272727     0.20130750     0.19967000
     0.27272727     0.28464083     0.19967000
     0.27272727     0.36797417     0.19967000
     0.27272727     0.45130750     0.19967000
     0.27272727     0.53464083     0.19967000
     0.27272727     0.61797417     0.19967000
     0.27272727     0.70130750     0.19967000
     0.27272727     0.78464083     0.19967000
     0.27272727     0.86797417     0.19967000
     0.27272727     0.95130750     0.19967000
     0.31818182     0.03464083     0.19967000
     0.31818182     0.11797417     0.19967000
     0.31818182     0.20130750     0.19967000
     0.31818182     0.28464083     0.19967000
     0.31818182     0.36797417     0.19967000
     0.31818182     0.45130750     0.19967000
     0.31818182     0.53464083     0.19967000
     0.31818182     0.61797417     0.19967000
     0.31818182     0.70130750     0.19967000
     0.31818182     0.78464083     0.19967000
     0.31818182     0.86797417     0.19967000
     0.31818182     0.95130750     0.19967000
     0.36363636     0.03464083     0.19967000
     0.36363636     0.11797417     0.19967000
     0.36363636     0.20130750     0.19967000
     0.36363636     0.28464083     0.19967000
     0.36363636     0.36797417     0.19967000
     0.36363636     0.45130750     0.19967000
     0.36363636     0.53464083     0.19967000
     0.36363636     0.61797417     0.19967000
     0.36363636     0.70130750     0.19967000
     0.36363636     0.78464083     0.19967000
     0.36363636     0.86797417     0.19967000
     0.36363636     0.95130750     0.19967000
     0.40909091     0.03464083     0.19967000
     0.40909091     0.11797417     0.19967000
     0.40909091     0.20130750     0.19967000
     0.40909091     0.28464083     0.19967000
     0.40909091     0.36797417     0.19967000
     0.40909091     0.45130750     0.19967000
     0.40909091     0.53464083     0.19967000
     0.40909091     0.61797417     0.19967000
     0.40909091     0.70130750     0.19967000
     0.40909091     0.78464083     0.19967000
     0.40909091     0.86797417     0.19967000
     0.40909091     0.95130750     0.19967000
     0.45454545     0.03464083     0.19967000
     0.45454545     0.11797417     0.19967000
     0.45454545     0.20130750     0.19967000
     0.45454545     0.28464083     0.19967000
     0.45454545     0.36797417     0.19967000
     0.45454545     0.45130750     0.19967000
     0.45454545     0.53464083     0.19967000
     0.45454545     0.61797417     0.19967000
     0.45454545     0.70130750     0.19967000
     0.45454545     0.78464083     0.19967000
     0.45454545     0.86797417     0.19967000
     0.45454545     0.95130750     0.19967000
     0.50000000     0.03464083     0.19967000
     0.50000000     0.11797417     0.19967000
     0.50000000     0.20130750     0.19967000
     0.50000000     0.28464083     0.19967000
     0.50000000     0.36797417     0.19967000
     0.50000000     0.45130750     0.19967000
     0.50000000     0.53464083     0.19967000
     0.50000000     0.61797417     0.19967000
     0.50000000     0.70130750     0.19967000
     0.50000000     0.78464083     0.19967000
     0.50000000     0.86797417     0.19967000
     0.50000000     0.95130750     0.19967000
     0.54545455     0.03464083     0.19967000
     0.54545455     0.11797417     0.19967000
     0.54545455     0.20130750     0.19967000
     0.54545455     0.28464083     0.19967000
     0.54545455     0.36797417     0.19967000
     0.54545455     0.45130750     0.19967000
     0.54545455     0.53464083     0.19967000
     0.54545455     0.61797417     0.19967000
     0.54545455     0.70130750     0.19967000
     0.54545455     0.78464083     0.19967000
     0.54545455     0.86797417     0.19967000
     0.54545455     0.95130750     0.19967000
     0.59090909     0.03464083     0.19967000
     0.59090909     0.11797417     0.19967000
     0.59090909     0.20130750     0.19967000
     0.59090909     0.28464083     0.19967000
     0.59090909     0.36797417     0.19967000
     0.59090909     0.45130750     0.19967000
     0.59090909     0.53464083     0.19967000
     0.59090909     0.61797417     0.19967000
     0.59090909     0.70130750     0.19967000
     0.59090909     0.78464083     0.19967000
     0.59090909     0.86797417     0.19967000
     0.59090909     0.95130750     0.19967000
     0.63636364     0.03464083     0.19967000
     0.63636364     0.11797417     0.19967000
     0.63636364     0.20130750     0.19967000
     0.63636364     0.28464083     0.19967000
     0.63636364     0.36797417     0.19967000
     0.63636364     0.45130750     0.19967000
     0.63636364     0.53464083     0.19967000
     0.63636364     0.61797417     0.19967000
     0.63636364     0.70130750     0.19967000
     0.63636364     0.78464083     0.19967000
     0.63636364     0.86797417     0.19967000
     0.63636364     0.95130750     0.19967000
     0.68181818     0.03464083     0.19967000
     0.68181818     0.11797417     0.19967000
     0.68181818     0.20130750     0.19967000
     0.68181818     0.28464083     0.19967000
     0.68181818     0.36797417     0.19967000
     0.68181818     0.45130750     0.19967000
     0.68181818     0.53464083     0.19967000
     0.68181818     0.61797417     0.19967000
     0.68181818     0.70130750     0.19967000
     0.68181818     0.78464083     0.19967000
     0.68181818     0.86797417     0.19967000
     0.68181818     0.95130750     0.19967000
     0.72727273     0.03464083     0.19967000
     0.72727273     0.11797417     0.19967000
     0.72727273     0.20130750     0.19967000
     0.72727273     0.28464083     0.19967000
     0.72727273     0.36797417     0.19967000
     0.72727273     0.45130750     0.19967000
     0.72727273     0.53464083     0.19967000
     0.72727273     0.61797417     0.19967000
     0.72727273     0.70130750     0.19967000
     0.72727273     0.78464083     0.19967000
     0.72727273     0.86797417     0.19967000
     0.72727273     0.95130750     0.19967000
     0.77272727     0.03464083     0.19967000
     0.77272727     0.11797417     0.19967000
     0.77272727     0.20130750     0.19967000
     0.77272727     0.28464083     0.19967000
     0.77272727     0.36797417     0.19967000
     0.77272727     0.45130750     0.19967000
     0.77272727     0.53464083     0.19967000
     0.77272727     0.61797417     0.19967000
     0.77272727     0.70130750     0.19967000
     0.77272727     0.78464083     0.19967000
     0.77272727     0.86797417     0.19967000
     0.77272727     0.95130750     0.19967000
     0.81818182     0.03464083     0.19967000
     0.81818182     0.11797417     0.19967000
     0.81818182     0.20130750     0.19967000
     0.81818182     0.28464083     0.19967000
     0.81818182     0.36797417     0.19967000
     0.81818182     0.45130750     0.19967000
     0.81818182     0.53464083     0.19967000
     0.81818182     0.61797417     0.19967000
     0.81818182     0.70130750     0.19967000
     0.81818182     0.78464083     0.19967000
     0.81818182     0.86797417     0.19967000
     0.81818182     0.95130750     0.19967000
     0.86363636     0.03464083     0.19967000
     0.86363636     0.11797417     0.19967000
     0.86363636     0.20130750     0.19967000
     0.86363636     0.28464083     0.19967000
     0.86363636     0.36797417     0.19967000
     0.86363636     0.45130750     0.19967000
     0.86363636     0.53464083     0.19967000
     0.86363636     0.61797417     0.19967000
     0.86363636     0.70130750     0.19967000
     0.86363636     0.78464083     0.19967000
     0.86363636     0.86797417     0.19967000
     0.86363636     0.95130750     0.19967000
     0.90909091     0.03464083     0.19967000
     0.90909091     0.11797417     0.19967000
     0.90909091     0.20130750     0.19967000
     0.90909091     0.28464083     0.19967000
     0.90909091     0.36797417     0.19967000
     0.90909091     0.45130750     0.19967000
     0.90909091     0.53464083     0.19967000
     0.90909091     0.61797417     0.19967000
     0.90909091     0.70130750     0.19967000
     0.90909091     0.78464083     0.19967000
     0.90909091     0.86797417     0.19967000
     0.90909091     0.95130750     0.19967000
     0.95454545     0.03464083     0.19967000
     0.95454545     0.11797417     0.19967000
     0.95454545     0.20130750     0.19967000
     0.95454545     0.28464083     0.19967000
     0.95454545     0.36797417     0.19967000
     0.95454545     0.45130750     0.19967000
     0.95454545     0.53464083     0.19967000
     0.95454545     0.61797417     0.19967000
     0.95454545     0.70130750     0.19967000
     0.95454545     0.78464083     0.19967000
     0.95454545     0.86797417     0.19967000
     0.95454545     0.95130750     0.19967000
     0.02272727     0.00702583     0.19967000
     0.02272727     0.09035917     0.19967000
     0.02272727     0.17369250     0.19967000
     0.02272727     0.25702583     0.19967000
     0.02272727     0.34035917     0.19967000
     0.02272727     0.42369250     0.19967000
     0.02272727     0.50702583     0.19967000
     0.02272727     0.59035917     0.19967000
     0.02272727     0.67369250     0.19967000
     0.02272727     0.75702583     0.19967000
     0.02272727     0.84035917     0.19967000
     0.02272727     0.92369250     0.19967000
     0.06818182     0.00702583     0.19967000
     0.06818182     0.09035917     0.19967000
     0.06818182     0.17369250     0.19967000
     0.06818182     0.25702583     0.19967000
     0.06818182     0.34035917     0.19967000
     0.06818182     0.42369250     0.19967000
     0.06818182     0.50702583     0.19967000
     0.06818182     0.59035917     0.19967000
     0.06818182     0.67369250     0.19967000
     0.06818182     0.75702583     0.19967000
     0.06818182     0.84035917     0.19967000
     0.06818182     0.92369250     0.19967000
     0.11363636     0.00702583     0.19967000
     0.11363636     0.09035917     0.19967000
     0.11363636     0.17369250     0.19967000
     0.11363636     0.25702583     0.19967000
     0.11363636     0.34035917     0.19967000
     0.11363636     0.42369250     0.19967000
     0.11363636     0.50702583     0.19967000
     0.11363636     0.59035917     0.19967000
     0.11363636     0.67369250     0.19967000
     0.11363636     0.75702583     0.19967000
     0.11363636     0.84035917     0.19967000
     0.11363636     0.92369250     0.19967000
     0.15909091     0.00702583     0.19967000
     0.15909091     0.09035917     0.19967000
     0.15909091     0.17369250     0.19967000
     0.15909091     0.25702583     0.19967000
     0.15909091     0.34035917     0.19967000
     0.15909091     0.42369250     0.19967000
     0.15909091     0.50702583     0.19967000
     0.15909091     0.59035917     0.19967000
     0.15909091     0.67369250     0.19967000
     0.15909091     0.75702583     0.19967000
     0.15909091     0.84035917     0.19967000
     0.15909091     0.92369250     0.19967000
     0.20454545     0.00702583     0.19967000
     0.20454545     0.09035917     0.19967000
     0.20454545     0.17369250     0.19967000
     0.20454545     0.25702583     0.19967000
     0.20454545     0.34035917     0.19967000
     0.20454545     0.42369250     0.19967000
     0.20454545     0.50702583     0.19967000
     0.20454545     0.59035917     0.19967000
     0.20454545     0.67369250     0.19967000
     0.20454545     0.75702583     0.19967000
     0.20454545     0.84035917     0.19967000
     0.20454545     0.92369250     0.19967000
     0.25000000     0.00702583     0.19967000
     0.25000000     0.09035917     0.19967000
     0.25000000     0.17369250     0.19967000
     0.25000000     0.25702583     0.19967000
     0.25000000     0.34035917     0.19967000
     0.25000000     0.42369250     0.19967000
     0.25000000     0.50702583     0.19967000
     0.25000000     0.59035917     0.19967000
     0.25000000     0.67369250     0.19967000
     0.25000000     0.75702583     0.19967000
     0.25000000     0.84035917     0.19967000
     0.25000000     0.92369250     0.19967000
     0.29545455     0.00702583     0.19967000
     0.29545455     0.09035917     0.19967000
     0.29545455     0.17369250     0.19967000
     0.29545455     0.25702583     0.19967000
     0.29545455     0.34035917     0.19967000
     0.29545455     0.42369250     0.19967000
     0.29545455     0.50702583     0.19967000
     0.29545455     0.59035917     0.19967000
     0.29545455     0.67369250     0.19967000
     0.29545455     0.75702583     0.19967000
     0.29545455     0.84035917     0.19967000
     0.29545455     0.92369250     0.19967000
     0.34090909     0.00702583     0.19967000
     0.34090909     0.09035917     0.19967000
     0.34090909     0.17369250     0.19967000
     0.34090909     0.25702583     0.19967000
     0.34090909     0.34035917     0.19967000
     0.34090909     0.42369250     0.19967000
     0.34090909     0.50702583     0.19967000
     0.34090909     0.59035917     0.19967000
     0.34090909     0.67369250     0.19967000
     0.34090909     0.75702583     0.19967000
     0.34090909     0.84035917     0.19967000
     0.34090909     0.92369250     0.19967000
     0.38636364     0.00702583     0.19967000
     0.38636364     0.09035917     0.19967000
     0.38636364     0.17369250     0.19967000
     0.38636364     0.25702583     0.19967000
     0.38636364     0.34035917     0.19967000
     0.38636364     0.42369250     0.19967000
     0.38636364     0.50702583     0.19967000
     0.38636364     0.59035917     0.19967000
     0.38636364     0.67369250     0.19967000