Generated by Twist2D
    1.0
      19.58031500       6.78282000       0.00000000
       3.91606300      20.34846000       0.00000000
       0.00000000       0.00000000      16.00000000
    Bi  I
    28  84
Direct
     0.19047643     0.04761886     0.40459488
     0.33333357     0.33333314     0.40459488
     0.47619071     0.61904743     0.40459488
     0.61904786     0.90476171     0.40459488
     0.76190500     0.19047600     0.40459488
     0.90476214     0.47619029     0.40459488
     1.04761929     0.76190457     0.40459488
     0.38095214     0.09523829     0.40461925
     0.52380929     0.38095257     0.40461925
     0.66666643     0.66666686     0.40461925
     0.80952357     0.95238114     0.40461925
     0.95238071     0.23809543     0.40461925
     1.09523786     0.52380971     0.40461925
     1.23809500     0.80952400     0.40461925
     0.38095257     0.52380929     0.84835263
     0.66666686     0.66666643     0.84835263
     0.95238114     0.80952357     0.84835263
     0.23809543    -0.04761929     0.84835263
     0.52380971     0.09523786     0.84835263
     0.80952400     0.23809500     0.84835263
     1.09523829     0.38095214     0.84835263
     0.61904743     0.47619071     0.84837700
     0.90476171     0.61904786     0.84837700
     1.19047600     0.76190500     0.84837700
     0.47619029    -0.09523786     0.84837700
     0.76190457     0.04761929     0.84837700
     1.04761886     0.19047643     0.84837700
     1.33333314     0.33333357     0.84837700
     0.42046686     0.19317771     0.29164600
     0.56332400     0.47889200     0.29164600
     0.70618114     0.76460629     0.29164600
     0.84903829     1.05032057     0.29164600
     0.99189543     0.33603486     0.29164600
     1.13475257     0.62174914     0.29164600
     1.27760971     0.90746343     0.29164600
     0.47889214    -0.04221571     0.29164600
     0.62174929     0.24349857     0.29164600
     0.76460643     0.52921286     0.29164600
     0.90746357     0.81492714     0.29164600
     1.05032071     0.10064143     0.29164600
     1.19317786     0.38635571     0.29164600
     1.33603500     0.67207000     0.29164600
     0.24349871     0.13475243     0.29164600
     0.38635586     0.42046671     0.29164600
     0.52921300     0.70618100     0.29164600
     0.67207014     0.99189529     0.29164600
     0.81492729     0.27760957     0.29164600
     0.95778443     0.56332386     0.29164600
     1.10064157     0.84903814     0.29164600
     0.28781443     0.23738686     0.51349263
     0.43067157     0.52310114     0.51349263
     0.57352871     0.80881543     0.51349263
     0.71638586     1.09452971     0.51349263
     0.85924300     0.38024400     0.51349263
     1.00210014     0.66595829     0.51349263
     1.14495729     0.95167257     0.51349263
     0.52310114     0.04622729     0.51349263
     0.66595829     0.33194157     0.51349263
     0.80881543     0.61765586     0.51349263
     0.95167257     0.90337014     0.51349263
     1.09452971     0.18908443     0.51349263
     1.23738686     0.47479871     0.51349263
     1.38024400     0.76051300     0.51349263
     0.33194157     0.00210014     0.51349263
     0.47479871     0.28781443     0.51349263
     0.61765586     0.57352871     0.51349263
     0.76051300     0.85924300     0.51349263
     0.90337014     0.14495729     0.51349263
     1.04622729     0.43067157     0.51349263
     1.18908443     0.71638586     0.51349263
     0.42647486     0.38235843     0.73947763
     0.71218914     0.52521557     0.73947763
     0.99790343     0.66807271     0.73947763
     0.28361771    -0.18907014     0.73947763
     0.56933200    -0.04621300     0.73947763
     0.85504629     0.09664414     0.73947763
     1.14076057     0.23950129     0.73947763
     0.23950129     0.61973814     0.73947763
     0.52521557     0.76259529     0.73947763
     0.81092986     0.90545243     0.73947763
     0.09664414     0.04830957     0.73947763
     0.38235843     0.19116671     0.73947763
     0.66807271     0.33402386     0.73947763
     0.95378700     0.47688100     0.73947763
     0.47688100     0.56933200     0.73947763
     0.76259529     0.71218914     0.73947763
     1.04830957     0.85504629     0.73947763
     0.33402386    -0.00209657     0.73947763
     0.61973814     0.14076057     0.73947763
     0.90545243     0.28361771     0.73947763
     1.19116671     0.42647486     0.73947763
     0.29381886     0.47078743     0.96132588
     0.57953314     0.61364457     0.96132588
     0.86524743     0.75650171     0.96132588
     0.15096171    -0.10064114     0.96132588
     0.43667600     0.04221600     0.96132588
     0.72239029     0.18507314     0.96132588
     1.00810457     0.32793029     0.96132588
     0.32793000     0.66396500     0.96132588
     0.61364429     0.80682214     0.96132588
     0.89935857     0.94967929     0.96132588
     0.18507286     0.09253643     0.96132588
     0.47078714     0.23539357     0.96132588
     0.75650143     0.37825071     0.96132588
     1.04221571     0.52110786     0.96132588
     0.52110757     0.43667629     0.96132588
     0.80682186     0.57953343     0.96132588
     1.09253614     0.72239057     0.96132588
     0.37825043    -0.13475229     0.96132588
     0.66396471     0.00810486     0.96132588
     0.94967900     0.15096200     0.96132588
     1.23539329     0.29381914     0.96132588
