Generated by Twist2D
    1.0
     242.79590600     135.65640000       0.00000000
       3.91606300     278.09562000       0.00000000
       0.00000000       0.00000000      16.00000000
    Bi  I
    5044  15132
Direct
     0.01691781     0.95109700     0.40459488
     0.03277823     0.96775045     0.40459488
     0.04863866     0.98440390     0.40459488
     0.01771083     0.90192967     0.40459488
     0.03357126     0.91858312     0.40459488
     0.04943168     0.93523657     0.40459488
     0.06529211     0.95189002     0.40459488
     0.08115254     0.96854347     0.40459488
     0.09701297     0.98519692     0.40459488
     0.01850385     0.85276234     0.40459488
     0.03436428     0.86941579     0.40459488
     0.05022471     0.88606924     0.40459488
     0.06608513     0.90272269     0.40459488
     0.08194556     0.91937614     0.40459488
     0.09780599     0.93602959     0.40459488
     0.11366642     0.95268304     0.40459488
     0.12952685     0.96933649     0.40459488
     0.14538728     0.98598994     0.40459488
     0.01929687     0.80359501     0.40459488
     0.03515730     0.82024846     0.40459488
     0.05101773     0.83690191     0.40459488
     0.06687816     0.85355536     0.40459488
     0.08273858     0.87020881     0.40459488
     0.09859901     0.88686226     0.40459488
     0.11445944     0.90351571     0.40459488
     0.13031987     0.92016916     0.40459488
     0.14618030     0.93682261     0.40459488
     0.16204072     0.95347606     0.40459488
     0.17790115     0.97012951     0.40459488
     0.19376158     0.98678296     0.40459488
     0.02008989     0.75442769     0.40459488
     0.03595032     0.77108114     0.40459488
     0.05181075     0.78773459     0.40459488
     0.06767118     0.80438804     0.40459488
     0.08353161     0.82104149     0.40459488
     0.09939203     0.83769493     0.40459488
     0.11525246     0.85434838     0.40459488
     0.13111289     0.87100183     0.40459488
     0.14697332     0.88765528     0.40459488
     0.16283375     0.90430873     0.40459488
     0.17869417     0.92096218     0.40459488
     0.19455460     0.93761563     0.40459488
     0.21041503     0.95426908     0.40459488
     0.22627546     0.97092253     0.40459488
     0.24213589     0.98757598     0.40459488
     0.02088291     0.70526036     0.40459488
     0.03674334     0.72191381     0.40459488
     0.05260377     0.73856726     0.40459488
     0.06846420     0.75522071     0.40459488
     0.08432463     0.77187416     0.40459488
     0.10018505     0.78852761     0.40459488
     0.11604548     0.80518106     0.40459488
     0.13190591     0.82183451     0.40459488
     0.14776634     0.83848796     0.40459488
     0.16362677     0.85514141     0.40459488
     0.17948720     0.87179486     0.40459488
     0.19534762     0.88844831     0.40459488
     0.21120805     0.90510175     0.40459488
     0.22706848     0.92175520     0.40459488
     0.24292891     0.93840865     0.40459488
     0.25878934     0.95506210     0.40459488
     0.27464977     0.97171555     0.40459488
     0.29051019     0.98836900     0.40459488
     0.02167593     0.65609303     0.40459488
     0.03753636     0.67274648     0.40459488
     0.05339679     0.68939993     0.40459488
     0.06925722     0.70605338     0.40459488
     0.08511765     0.72270683     0.40459488
     0.10097808     0.73936028     0.40459488
     0.11683850     0.75601373     0.40459488
     0.13269893     0.77266718     0.40459488
     0.14855936     0.78932063     0.40459488
     0.16441979     0.80597408     0.40459488
     0.18028022     0.82262753     0.40459488
     0.19614065     0.83928098     0.40459488
     0.21200107     0.85593443     0.40459488
     0.22786150     0.87258788     0.40459488
     0.24372193     0.88924133     0.40459488
     0.25958236     0.90589478     0.40459488
     0.27544279     0.92254823     0.40459488
     0.29130321     0.93920168     0.40459488
     0.30716364     0.95585513     0.40459488
     0.32302407     0.97250857     0.40459488
     0.33888450     0.98916202     0.40459488
     0.02246896     0.60692570     0.40459488
     0.03832938     0.62357915     0.40459488
     0.05418981     0.64023260     0.40459488
     0.07005024     0.65688605     0.40459488
     0.08591067     0.67353950     0.40459488
     0.10177110     0.69019295     0.40459488
     0.11763153     0.70684640     0.40459488
     0.13349195     0.72349985     0.40459488
     0.14935238     0.74015330     0.40459488
     0.16521281     0.75680675     0.40459488
     0.18107324     0.77346020     0.40459488
     0.19693367     0.79011365     0.40459488
     0.21279410     0.80676710     0.40459488
     0.22865452     0.82342055     0.40459488
     0.24451495     0.84007400     0.40459488
     0.26037538     0.85672745     0.40459488
     0.27623581     0.87338090     0.40459488
     0.29209624     0.89003435     0.40459488
     0.30795666     0.90668780     0.40459488
     0.32381709     0.92334125     0.40459488
     0.33967752     0.93999470     0.40459488
     0.35553795     0.95664815     0.40459488
     0.37139838     0.97330160     0.40459488
     0.38725881     0.98995505     0.40459488
     0.02326198     0.55775838     0.40459488
     0.03912241     0.57441183     0.40459488
     0.05498283     0.59106528     0.40459488
     0.07084326     0.60771873     0.40459488
     0.08670369     0.62437218     0.40459488
     0.10256412     0.64102562     0.40459488
     0.11842455     0.65767907     0.40459488
     0.13428498     0.67433252     0.40459488
     0.15014540     0.69098597     0.40459488
     0.16600583     0.70763942     0.40459488
     0.18186626     0.72429287     0.40459488
     0.19772669     0.74094632     0.40459488
     0.21358712     0.75759977     0.40459488
     0.22944754     0.77425322     0.40459488
     0.24530797     0.79090667     0.40459488
     0.26116840     0.80756012     0.40459488
     0.27702883     0.82421357     0.40459488
     0.29288926     0.84086702     0.40459488
     0.30874969     0.85752047     0.40459488
     0.32461011     0.87417392     0.40459488
     0.34047054     0.89082737     0.40459488
     0.35633097     0.90748082     0.40459488
     0.37219140     0.92413427     0.40459488
     0.38805183     0.94078772     0.40459488
     0.40391226     0.95744117     0.40459488
     0.41977268     0.97409462     0.40459488
     0.43563311     0.99074807     0.40459488
     0.02405500     0.50859105     0.40459488
     0.03991543     0.52524450     0.40459488
     0.05577586     0.54189795     0.40459488
     0.07163628     0.55855140     0.40459488
     0.08749671     0.57520485     0.40459488
     0.10335714     0.59185830     0.40459488
     0.11921757     0.60851175     0.40459488
     0.13507800     0.62516520     0.40459488
     0.15093843     0.64181865     0.40459488
     0.16679885     0.65847210     0.40459488
     0.18265928     0.67512555     0.40459488
     0.19851971     0.69177900     0.40459488
     0.21438014     0.70843244     0.40459488
     0.23024057     0.72508589     0.40459488
     0.24610099     0.74173934     0.40459488
     0.26196142     0.75839279     0.40459488
     0.27782185     0.77504624     0.40459488
     0.29368228     0.79169969     0.40459488
     0.30954271     0.80835314     0.40459488
     0.32540314     0.82500659     0.40459488
     0.34126356     0.84166004     0.40459488
     0.35712399     0.85831349     0.40459488
     0.37298442     0.87496694     0.40459488
     0.38884485     0.89162039     0.40459488
     0.40470528     0.90827384     0.40459488
     0.42056570     0.92492729     0.40459488
     0.43642613     0.94158074     0.40459488
     0.45228656     0.95823419     0.40459488
     0.46814699     0.97488764     0.40459488
     0.48400742     0.99154109     0.40459488
     0.02484802     0.45942372     0.40459488
     0.04070845     0.47607717     0.40459488
     0.05656888     0.49273062     0.40459488
     0.07242931     0.50938407     0.40459488
     0.08828973     0.52603752     0.40459488
     0.10415016     0.54269097     0.40459488
     0.12001059     0.55934442     0.40459488
     0.13587102     0.57599787     0.40459488
     0.15173145     0.59265132     0.40459488
     0.16759187     0.60930477     0.40459488
     0.18345230     0.62595822     0.40459488
     0.19931273     0.64261167     0.40459488
     0.21517316     0.65926512     0.40459488
     0.23103359     0.67591857     0.40459488
     0.24689402     0.69257202     0.40459488
     0.26275444     0.70922547     0.40459488
     0.27861487     0.72587892     0.40459488
     0.29447530     0.74253237     0.40459488
     0.31033573     0.75918582     0.40459488
     0.32619616     0.77583926     0.40459488
     0.34205659     0.79249271     0.40459488
     0.35791701     0.80914616     0.40459488
     0.37377744     0.82579961     0.40459488
     0.38963787     0.84245306     0.40459488
     0.40549830     0.85910651     0.40459488
     0.42135873     0.87575996     0.40459488
     0.43721915     0.89241341     0.40459488
     0.45307958     0.90906686     0.40459488
     0.46894001     0.92572031     0.40459488
     0.48480044     0.94237376     0.40459488
     0.50066087     0.95902721     0.40459488
     0.51652130     0.97568066     0.40459488
     0.53238172     0.99233411     0.40459488
     0.02564104     0.41025639     0.40459488
     0.04150147     0.42690984     0.40459488
     0.05736190     0.44356329     0.40459488
     0.07322233     0.46021674     0.40459488
     0.08908275     0.47687019     0.40459488
     0.10494318     0.49352364     0.40459488
     0.12080361     0.51017709     0.40459488
     0.13666404     0.52683054     0.40459488
     0.15252447     0.54348399     0.40459488
     0.16838490     0.56013744     0.40459488
     0.18424532     0.57679089     0.40459488
     0.20010575     0.59344434     0.40459488
     0.21596618     0.61009779     0.40459488
     0.23182661     0.62675124     0.40459488
     0.24768704     0.64340469     0.40459488
     0.26354747     0.66005814     0.40459488
     0.27940789     0.67671159     0.40459488
     0.29526832     0.69336504     0.40459488
     0.31112875     0.71001849     0.40459488
     0.32698918     0.72667194     0.40459488
     0.34284961     0.74332539     0.40459488
     0.35871003     0.75997884     0.40459488
     0.37457046     0.77663229     0.40459488
     0.39043089     0.79328574     0.40459488
     0.40629132     0.80993919     0.40459488
     0.42215175     0.82659264     0.40459488
     0.43801218     0.84324608     0.40459488
     0.45387260     0.85989953     0.40459488
     0.46973303     0.87655298     0.40459488
     0.48559346     0.89320643     0.40459488
     0.50145389     0.90985988     0.40459488
     0.51731432     0.92651333     0.40459488
     0.53317475     0.94316678     0.40459488
     0.54903517     0.95982023     0.40459488
     0.56489560     0.97647368     0.40459488
     0.58075603     0.99312713     0.40459488
     0.02643406     0.36108907     0.40459488
     0.04229449     0.37774252     0.40459488
     0.05815492     0.39439597     0.40459488
     0.07401535     0.41104942     0.40459488
     0.08987578     0.42770287     0.40459488
     0.10573620     0.44435631     0.40459488
     0.12159663     0.46100976     0.40459488
     0.13745706     0.47766321     0.40459488
     0.15331749     0.49431666     0.40459488
     0.16917792     0.51097011     0.40459488
     0.18503835     0.52762356     0.40459488
     0.20089877     0.54427701     0.40459488
     0.21675920     0.56093046     0.40459488
     0.23261963     0.57758391     0.40459488
     0.24848006     0.59423736     0.40459488
     0.26434049     0.61089081     0.40459488
     0.28020092     0.62754426     0.40459488
     0.29606134     0.64419771     0.40459488
     0.31192177     0.66085116     0.40459488
     0.32778220     0.67750461     0.40459488
     0.34364263     0.69415806     0.40459488
     0.35950306     0.71081151     0.40459488
     0.37536348     0.72746496     0.40459488
     0.39122391     0.74411841     0.40459488
     0.40708434     0.76077186     0.40459488
     0.42294477     0.77742531     0.40459488
     0.43880520     0.79407876     0.40459488
     0.45466563     0.81073221     0.40459488
     0.47052605     0.82738566     0.40459488
     0.48638648     0.84403911     0.40459488
     0.50224691     0.86069256     0.40459488
     0.51810734     0.87734601     0.40459488
     0.53396777     0.89399946     0.40459488
     0.54982820     0.91065290     0.40459488
     0.56568862     0.92730635     0.40459488
     0.58154905     0.94395980     0.40459488
     0.59740948     0.96061325     0.40459488
     0.61326991     0.97726670     0.40459488
     0.62913034     0.99392015     0.40459488
     0.02722708     0.31192174     0.40459488
     0.04308751     0.32857519     0.40459488
     0.05894794     0.34522864     0.40459488
     0.07480837     0.36188209     0.40459488
     0.09066880     0.37853554     0.40459488
     0.10652923     0.39518899     0.40459488
     0.12238965     0.41184244     0.40459488
     0.13825008     0.42849589     0.40459488
     0.15411051     0.44514934     0.40459488
     0.16997094     0.46180279     0.40459488
     0.18583137     0.47845624     0.40459488
     0.20169180     0.49510969     0.40459488
     0.21755222     0.51176313     0.40459488
     0.23341265     0.52841658     0.40459488
     0.24927308     0.54507003     0.40459488
     0.26513351     0.56172348     0.40459488
     0.28099394     0.57837693     0.40459488
     0.29685436     0.59503038     0.40459488
     0.31271479     0.61168383     0.40459488
     0.32857522     0.62833728     0.40459488
     0.34443565     0.64499073     0.40459488
     0.36029608     0.66164418     0.40459488
     0.37615651     0.67829763     0.40459488
     0.39201693     0.69495108     0.40459488
     0.40787736     0.71160453     0.40459488
     0.42373779     0.72825798     0.40459488
     0.43959822     0.74491143     0.40459488
     0.45545865     0.76156488     0.40459488
     0.47131908     0.77821833     0.40459488
     0.48717950     0.79487178     0.40459488
     0.50303993     0.81152523     0.40459488
     0.51890036     0.82817868     0.40459488
     0.53476079     0.84483213     0.40459488
     0.55062122     0.86148558     0.40459488
     0.56648164     0.87813903     0.40459488
     0.58234207     0.89479248     0.40459488
     0.59820250     0.91144593     0.40459488
     0.61406293     0.92809938     0.40459488
     0.62992336     0.94475283     0.40459488
     0.64578379     0.96140628     0.40459488
     0.66164421     0.97805972     0.40459488
     0.67750464     0.99471317     0.40459488
     0.02802011     0.26275441     0.40459488
     0.04388053     0.27940786     0.40459488
     0.05974096     0.29606131     0.40459488
     0.07560139     0.31271476     0.40459488
     0.09146182     0.32936821     0.40459488
     0.10732225     0.34602166     0.40459488
     0.12318268     0.36267511     0.40459488
     0.13904310     0.37932856     0.40459488
     0.15490353     0.39598201     0.40459488
     0.17076396     0.41263546     0.40459488
     0.18662439     0.42928891     0.40459488
     0.20248482     0.44594236     0.40459488
     0.21834525     0.46259581     0.40459488
     0.23420567     0.47924926     0.40459488
     0.25006610     0.49590271     0.40459488
     0.26592653     0.51255616     0.40459488
     0.28178696     0.52920961     0.40459488
     0.29764739     0.54586306     0.40459488
     0.31350781     0.56251651     0.40459488
     0.32936824     0.57916995     0.40459488
     0.34522867     0.59582340     0.40459488
     0.36108910     0.61247685     0.40459488
     0.37694953     0.62913030     0.40459488
     0.39280996     0.64578375     0.40459488
     0.40867038     0.66243720     0.40459488
     0.42453081     0.67909065     0.40459488
     0.44039124     0.69574410     0.40459488
     0.45625167     0.71239755     0.40459488
     0.47211210     0.72905100     0.40459488
     0.48797252     0.74570445     0.40459488
     0.50383295     0.76235790     0.40459488
     0.51969338     0.77901135     0.40459488
     0.53555381     0.79566480     0.40459488
     0.55141424     0.81231825     0.40459488
     0.56727467     0.82897170     0.40459488
     0.58313509     0.84562515     0.40459488
     0.59899552     0.86227860     0.40459488
     0.61485595     0.87893205     0.40459488
     0.63071638     0.89558550     0.40459488
     0.64657681     0.91223895     0.40459488
     0.66243724     0.92889240     0.40459488
     0.67829766     0.94554585     0.40459488
     0.69415809     0.96219930     0.40459488
     0.71001852     0.97885275     0.40459488
     0.72587895     0.99550620     0.40459488
     0.02881313     0.21358708     0.40459488
     0.04467356     0.23024053     0.40459488
     0.06053398     0.24689398     0.40459488
     0.07639441     0.26354743     0.40459488
     0.09225484     0.28020088     0.40459488
     0.10811527     0.29685433     0.40459488
     0.12397570     0.31350778     0.40459488
     0.13983613     0.33016123     0.40459488
     0.15569655     0.34681468     0.40459488
     0.17155698     0.36346813     0.40459488
     0.18741741     0.38012158     0.40459488
     0.20327784     0.39677503     0.40459488
     0.21913827     0.41342848     0.40459488
     0.23499869     0.43008193     0.40459488
     0.25085912     0.44673538     0.40459488
     0.26671955     0.46338883     0.40459488
     0.28257998     0.48004228     0.40459488
     0.29844041     0.49669573     0.40459488
     0.31430084     0.51334918     0.40459488
     0.33016126     0.53000263     0.40459488
     0.34602169     0.54665608     0.40459488
     0.36188212     0.56330953     0.40459488
     0.37774255     0.57996298     0.40459488
     0.39360298     0.59661643     0.40459488
     0.40946341     0.61326988     0.40459488
     0.42532383     0.62992333     0.40459488
     0.44118426     0.64657677     0.40459488
     0.45704469     0.66323022     0.40459488
     0.47290512     0.67988367     0.40459488
     0.48876555     0.69653712     0.40459488
     0.50462597     0.71319057     0.40459488
     0.52048640     0.72984402     0.40459488
     0.53634683     0.74649747     0.40459488
     0.55220726     0.76315092     0.40459488
     0.56806769     0.77980437     0.40459488
     0.58392812     0.79645782     0.40459488
     0.59978854     0.81311127     0.40459488
     0.61564897     0.82976472     0.40459488
     0.63150940     0.84641817     0.40459488
     0.64736983     0.86307162     0.40459488
     0.66323026     0.87972507     0.40459488
     0.67909069     0.89637852     0.40459488
     0.69495111     0.91303197     0.40459488
     0.71081154     0.92968542     0.40459488
     0.72667197     0.94633887     0.40459488
     0.74253240     0.96299232     0.40459488
     0.75839283     0.97964577     0.40459488
     0.77425325     0.99629922     0.40459488
     0.02960615     0.16441976     0.40459488
     0.04546658     0.18107321     0.40459488
     0.06132701     0.19772666     0.40459488
     0.07718743     0.21438011     0.40459488
     0.09304786     0.23103356     0.40459488
     0.10890829     0.24768700     0.40459488
     0.12476872     0.26434045     0.40459488
     0.14062915     0.28099390     0.40459488
     0.15648957     0.29764735     0.40459488
     0.17235000     0.31430080     0.40459488
     0.18821043     0.33095425     0.40459488
     0.20407086     0.34760770     0.40459488
     0.21993129     0.36426115     0.40459488
     0.23579172     0.38091460     0.40459488
     0.25165214     0.39756805     0.40459488
     0.26751257     0.41422150     0.40459488
     0.28337300     0.43087495     0.40459488
     0.29923343     0.44752840     0.40459488
     0.31509386     0.46418185     0.40459488
     0.33095429     0.48083530     0.40459488
     0.34681471     0.49748875     0.40459488
     0.36267514     0.51414220     0.40459488
     0.37853557     0.53079565     0.40459488
     0.39439600     0.54744910     0.40459488
     0.41025643     0.56410255     0.40459488
     0.42611685     0.58075600     0.40459488
     0.44197728     0.59740945     0.40459488
     0.45783771     0.61406290     0.40459488
     0.47369814     0.63071635     0.40459488
     0.48955857     0.64736980     0.40459488
     0.50541900     0.66402325     0.40459488
     0.52127942     0.68067670     0.40459488
     0.53713985     0.69733015     0.40459488
     0.55300028     0.71398359     0.40459488
     0.56886071     0.73063704     0.40459488
     0.58472114     0.74729049     0.40459488
     0.60058157     0.76394394     0.40459488
     0.61644199     0.78059739     0.40459488
     0.63230242     0.79725084     0.40459488
     0.64816285     0.81390429     0.40459488
     0.66402328     0.83055774     0.40459488
     0.67988371     0.84721119     0.40459488
     0.69574413     0.86386464     0.40459488
     0.71160456     0.88051809     0.40459488
     0.72746499     0.89717154     0.40459488
     0.74332542     0.91382499     0.40459488
     0.75918585     0.93047844     0.40459488
     0.77504628     0.94713189     0.40459488
     0.79090670     0.96378534     0.40459488
     0.80676713     0.98043879     0.40459488
     0.82262756     0.99709224     0.40459488
     0.03039917     0.11525243     0.40459488
     0.04625960     0.13190588     0.40459488
     0.06212003     0.14855933     0.40459488
     0.07798046     0.16521278     0.40459488
     0.09384088     0.18186623     0.40459488
     0.10970131     0.19851968     0.40459488
     0.12556174     0.21517313     0.40459488
     0.14142217     0.23182658     0.40459488
     0.15728260     0.24848003     0.40459488
     0.17314302     0.26513348     0.40459488
     0.18900345     0.28178693     0.40459488
     0.20486388     0.29844038     0.40459488
     0.22072431     0.31509382     0.40459488
     0.23658474     0.33174727     0.40459488
     0.25244517     0.34840072     0.40459488
     0.26830559     0.36505417     0.40459488
     0.28416602     0.38170762     0.40459488
     0.30002645     0.39836107     0.40459488
     0.31588688     0.41501452     0.40459488
     0.33174731     0.43166797     0.40459488
     0.34760774     0.44832142     0.40459488
     0.36346816     0.46497487     0.40459488
     0.37932859     0.48162832     0.40459488
     0.39518902     0.49828177     0.40459488
     0.41104945     0.51493522     0.40459488
     0.42690988     0.53158867     0.40459488
     0.44277030     0.54824212     0.40459488
     0.45863073     0.56489557     0.40459488
     0.47449116     0.58154902     0.40459488
     0.49035159     0.59820247     0.40459488
     0.50621202     0.61485592     0.40459488
     0.52207245     0.63150937     0.40459488
     0.53793287     0.64816282     0.40459488
     0.55379330     0.66481627     0.40459488
     0.56965373     0.68146972     0.40459488
     0.58551416     0.69812317     0.40459488
     0.60137459     0.71477662     0.40459488
     0.61723502     0.73143007     0.40459488
     0.63309544     0.74808352     0.40459488
     0.64895587     0.76473697     0.40459488
     0.66481630     0.78139041     0.40459488
     0.68067673     0.79804386     0.40459488
     0.69653716     0.81469731     0.40459488
     0.71239758     0.83135076     0.40459488
     0.72825801     0.84800421     0.40459488
     0.74411844     0.86465766     0.40459488
     0.75997887     0.88131111     0.40459488
     0.77583930     0.89796456     0.40459488
     0.79169973     0.91461801     0.40459488
     0.80756015     0.93127146     0.40459488
     0.82342058     0.94792491     0.40459488
     0.83928101     0.96457836     0.40459488
     0.85514144     0.98123181     0.40459488
     0.87100187     0.99788526     0.40459488
     0.03119219     0.06608510     0.40459488
     0.04705262     0.08273855     0.40459488
     0.06291305     0.09939200     0.40459488
     0.07877348     0.11604545     0.40459488
     0.09463390     0.13269890     0.40459488
     0.11049433     0.14935235     0.40459488
     0.12635476     0.16600580     0.40459488
     0.14221519     0.18265925     0.40459488
     0.15807562     0.19931270     0.40459488
     0.17393605     0.21596615     0.40459488
     0.18979647     0.23261960     0.40459488
     0.20565690     0.24927305     0.40459488
     0.22151733     0.26592650     0.40459488
     0.23737776     0.28257995     0.40459488
     0.25323819     0.29923340     0.40459488
     0.26909862     0.31588685     0.40459488
     0.28495904     0.33254030     0.40459488
     0.30081947     0.34919375     0.40459488
     0.31667990     0.36584720     0.40459488
     0.33254033     0.38250064     0.40459488
     0.34840076     0.39915409     0.40459488
     0.36426118     0.41580754     0.40459488
     0.38012161     0.43246099     0.40459488
     0.39598204     0.44911444     0.40459488
     0.41184247     0.46576789     0.40459488
     0.42770290     0.48242134     0.40459488
     0.44356333     0.49907479     0.40459488
     0.45942375     0.51572824     0.40459488
     0.47528418     0.53238169     0.40459488
     0.49114461     0.54903514     0.40459488
     0.50700504     0.56568859     0.40459488
     0.52286547     0.58234204     0.40459488
     0.53872590     0.59899549     0.40459488
     0.55458632     0.61564894     0.40459488
     0.57044675     0.63230239     0.40459488
     0.58630718     0.64895584     0.40459488
     0.60216761     0.66560929     0.40459488
     0.61802804     0.68226274     0.40459488
     0.63388846     0.69891619     0.40459488
     0.64974889     0.71556964     0.40459488
     0.66560932     0.73222309     0.40459488
     0.68146975     0.74887654     0.40459488
     0.69733018     0.76552999     0.40459488
     0.71319061     0.78218344     0.40459488
     0.72905103     0.79883689     0.40459488
     0.74491146     0.81549034     0.40459488
     0.76077189     0.83214379     0.40459488
     0.77663232     0.84879723     0.40459488
     0.79249275     0.86545068     0.40459488
     0.80835318     0.88210413     0.40459488
     0.82421360     0.89875758     0.40459488
     0.84007403     0.91541103     0.40459488
     0.85593446     0.93206448     0.40459488
     0.87179489     0.94871793     0.40459488
     0.88765532     0.96537138     0.40459488
     0.90351574     0.98202483     0.40459488
     0.91937617     0.99867828     0.40459488
     0.01612479     0.00026432     0.40459488
     0.03198521     0.01691777     0.40459488
     0.04784564     0.03357122     0.40459488
     0.06370607     0.05022467     0.40459488
     0.07956650     0.06687812     0.40459488
     0.09542693     0.08353157     0.40459488
     0.11128735     0.10018502     0.40459488
     0.12714778     0.11683847     0.40459488
     0.14300821     0.13349192     0.40459488
     0.15886864     0.15014537     0.40459488
     0.17472907     0.16679882     0.40459488
     0.19058950     0.18345227     0.40459488
     0.20644992     0.20010572     0.40459488
     0.22231035     0.21675917     0.40459488
     0.23817078     0.23341262     0.40459488
     0.25403121     0.25006607     0.40459488
     0.26989164     0.26671952     0.40459488
     0.28575207     0.28337297     0.40459488
     0.30161249     0.30002642     0.40459488
     0.31747292     0.31667987     0.40459488
     0.33333335     0.33333332     0.40459488
     0.34919378     0.34998677     0.40459488
     0.36505421     0.36664022     0.40459488
     0.38091463     0.38329367     0.40459488
     0.39677506     0.39994712     0.40459488
     0.41263549     0.41660057     0.40459488
     0.42849592     0.43325402     0.40459488
     0.44435635     0.44990746     0.40459488
     0.46021678     0.46656091     0.40459488
     0.47607720     0.48321436     0.40459488
     0.49193763     0.49986781     0.40459488
     0.50779806     0.51652126     0.40459488
     0.52365849     0.53317471     0.40459488
     0.53951892     0.54982816     0.40459488
     0.55537934     0.56648161     0.40459488
     0.57123977     0.58313506     0.40459488
     0.58710020     0.59978851     0.40459488
     0.60296063     0.61644196     0.40459488
     0.61882106     0.63309541     0.40459488
     0.63468149     0.64974886     0.40459488
     0.65054191     0.66640231     0.40459488
     0.66640234     0.68305576     0.40459488
     0.68226277     0.69970921     0.40459488
     0.69812320     0.71636266     0.40459488
     0.71398363     0.73301611     0.40459488
     0.72984406     0.74966956     0.40459488
     0.74570448     0.76632301     0.40459488
     0.76156491     0.78297646     0.40459488
     0.77742534     0.79962991     0.40459488
     0.79328577     0.81628336     0.40459488
     0.80914620     0.83293681     0.40459488
     0.82500662     0.84959026     0.40459488
     0.84086705     0.86624371     0.40459488
     0.85672748     0.88289716     0.40459488
     0.87258791     0.89955061     0.40459488
     0.88844834     0.91620405     0.40459488
     0.90430877     0.93285750     0.40459488
     0.92016919     0.94951095     0.40459488
     0.93602962     0.96616440     0.40459488
     0.95189005     0.98281785     0.40459488
     0.96775048     0.99947130     0.40459488
     0.06449909     0.00105735     0.40459488
     0.08035952     0.01771080     0.40459488
     0.09621995     0.03436425     0.40459488
     0.11208038     0.05101769     0.40459488
     0.12794080     0.06767114     0.40459488
     0.14380123     0.08432459     0.40459488
     0.15966166     0.10097804     0.40459488
     0.17552209     0.11763149     0.40459488
     0.19138252     0.13428494     0.40459488
     0.20724295     0.15093839     0.40459488
     0.22310337     0.16759184     0.40459488
     0.23896380     0.18424529     0.40459488
     0.25482423     0.20089874     0.40459488
     0.27068466     0.21755219     0.40459488
     0.28654509     0.23420564     0.40459488
     0.30240551     0.25085909     0.40459488