Bi4 I12                                 
   1.00000000000000     
     7.8321259999999997    0.0000000000000000    0.0000000000000000
    -3.9160629999999998    6.7828200000000001    0.0000000000000000
     0.0000000000000000    0.0000000000000000   26.0000000000000000
   Bi   I 
     4    12
Direct
  0.6666669999999968  0.3333330000000032  0.3588417603388228
  0.3333330000000032  0.6666669999999968  0.3588574089553965
  0.6666669999999968  0.3333330000000032  0.6245225910446002
  0.3333330000000032  0.6666669999999968  0.6245382396611807
  0.6477552530352942 -0.0000003974093233  0.2893353423439737
  0.3522443495553825  0.3522447469647057  0.2893353423439737
  0.0000003974093235  0.6477556504446177  0.2893353423439737
  0.3382173521215999 -0.0000251067772835  0.4258556676351552
  0.6617575411011162  0.6617826478783999  0.4258556676351552
  0.0000251067772836  0.3382424588988836  0.4258556676351552
  0.6617826478783999  0.0000251067772836  0.5575233323648442
  0.3382424588988836  0.3382173521215999  0.5575233323648442
 -0.0000251067772835  0.6617575411011162  0.5575233323648442
  0.3522447469647057  0.0000003974093235  0.6940446576560223
  0.6477556504446177  0.6477552530352942  0.6940446576560223
 -0.0000003974093233  0.3522443495553825  0.6940446576560223
 
  0.00000000E+00  0.00000000E+00  0.00000000E+00
  0.00000000E+00  0.00000000E+00  0.00000000E+00
  0.00000000E+00  0.00000000E+00  0.00000000E+00
  0.00000000E+00  0.00000000E+00  0.00000000E+00
  0.00000000E+00  0.00000000E+00  0.00000000E+00
  0.00000000E+00  0.00000000E+00  0.00000000E+00
  0.00000000E+00  0.00000000E+00  0.00000000E+00
  0.00000000E+00  0.00000000E+00  0.00000000E+00
  0.00000000E+00  0.00000000E+00  0.00000000E+00
  0.00000000E+00  0.00000000E+00  0.00000000E+00
  0.00000000E+00  0.00000000E+00  0.00000000E+00
  0.00000000E+00  0.00000000E+00  0.00000000E+00
  0.00000000E+00  0.00000000E+00  0.00000000E+00
  0.00000000E+00  0.00000000E+00  0.00000000E+00
  0.00000000E+00  0.00000000E+00  0.00000000E+00
  0.00000000E+00  0.00000000E+00  0.00000000E+00
