Generated by Twist2D
    1.0
     360.27779600     203.48460000       0.00000000
       3.91606300     413.75202000       0.00000000
       0.00000000       0.00000000      16.00000000
    Bi  I
    11164  33492
Direct
     0.01122657     0.96715632     0.40459488
     0.02197541     0.97826346     0.40459488
     0.03272424     0.98937059     0.40459488
     0.01158487     0.93419323     0.40459488
     0.02233370     0.94530036     0.40459488
     0.03308254     0.95640749     0.40459488
     0.04383137     0.96751462     0.40459488
     0.05458021     0.97862175     0.40459488
     0.06532904     0.98972888     0.40459488
     0.01194316     0.90123013     0.40459488
     0.02269200     0.91233726     0.40459488
     0.03344083     0.92344439     0.40459488
     0.04418967     0.93455152     0.40459488
     0.05493850     0.94565865     0.40459488
     0.06568734     0.95676578     0.40459488
     0.07643617     0.96787291     0.40459488
     0.08718501     0.97898004     0.40459488
     0.09793385     0.99008717     0.40459488
     0.01230146     0.86826704     0.40459488
     0.02305029     0.87937417     0.40459488
     0.03379913     0.89048130     0.40459488
     0.04454796     0.90158843     0.40459488
     0.05529680     0.91269556     0.40459488
     0.06604563     0.92380269     0.40459488
     0.07679447     0.93490982     0.40459488
     0.08754330     0.94601695     0.40459488
     0.09829214     0.95712408     0.40459488
     0.10904098     0.96823121     0.40459488
     0.11978981     0.97933834     0.40459488
     0.13053865     0.99044547     0.40459488
     0.01265975     0.83530394     0.40459488
     0.02340859     0.84641107     0.40459488
     0.03415742     0.85751820     0.40459488
     0.04490626     0.86862533     0.40459488
     0.05565509     0.87973246     0.40459488
     0.06640393     0.89083959     0.40459488
     0.07715276     0.90194672     0.40459488
     0.08790160     0.91305385     0.40459488
     0.09865043     0.92416098     0.40459488
     0.10939927     0.93526811     0.40459488
     0.12014811     0.94637524     0.40459488
     0.13089694     0.95748237     0.40459488
     0.14164578     0.96858950     0.40459488
     0.15239461     0.97969663     0.40459488
     0.16314345     0.99080376     0.40459488
     0.01301805     0.80234085     0.40459488
     0.02376688     0.81344798     0.40459488
     0.03451572     0.82455511     0.40459488
     0.04526455     0.83566224     0.40459488
     0.05601339     0.84676937     0.40459488
     0.06676222     0.85787650     0.40459488
     0.07751106     0.86898363     0.40459488
     0.08825989     0.88009076     0.40459488
     0.09900873     0.89119789     0.40459488
     0.10975757     0.90230502     0.40459488
     0.12050640     0.91341215     0.40459488
     0.13125524     0.92451928     0.40459488
     0.14200407     0.93562641     0.40459488
     0.15275291     0.94673354     0.40459488
     0.16350174     0.95784067     0.40459488
     0.17425058     0.96894780     0.40459488
     0.18499941     0.98005493     0.40459488
     0.19574825     0.99116206     0.40459488
     0.01337634     0.76937775     0.40459488
     0.02412518     0.78048488     0.40459488
     0.03487401     0.79159201     0.40459488
     0.04562285     0.80269914     0.40459488
     0.05637168     0.81380627     0.40459488
     0.06712052     0.82491340     0.40459488
     0.07786935     0.83602053     0.40459488
     0.08861819     0.84712766     0.40459488
     0.09936702     0.85823479     0.40459488
     0.11011586     0.86934192     0.40459488
     0.12086470     0.88044905     0.40459488
     0.13161353     0.89155618     0.40459488
     0.14236237     0.90266331     0.40459488
     0.15311120     0.91377044     0.40459488
     0.16386004     0.92487757     0.40459488
     0.17460887     0.93598470     0.40459488
     0.18535771     0.94709183     0.40459488
     0.19610654     0.95819896     0.40459488
     0.20685538     0.96930609     0.40459488
     0.21760421     0.98041322     0.40459488
     0.22835305     0.99152035     0.40459488
     0.01373463     0.73641466     0.40459488
     0.02448347     0.74752179     0.40459488
     0.03523231     0.75862892     0.40459488
     0.04598114     0.76973605     0.40459488
     0.05672998     0.78084318     0.40459488
     0.06747881     0.79195031     0.40459488
     0.07822765     0.80305744     0.40459488
     0.08897648     0.81416457     0.40459488
     0.09972532     0.82527170     0.40459488
     0.11047415     0.83637883     0.40459488
     0.12122299     0.84748596     0.40459488
     0.13197183     0.85859309     0.40459488
     0.14272066     0.86970022     0.40459488
     0.15346950     0.88080735     0.40459488
     0.16421833     0.89191448     0.40459488
     0.17496717     0.90302161     0.40459488
     0.18571600     0.91412874     0.40459488
     0.19646484     0.92523587     0.40459488
     0.20721367     0.93634300     0.40459488
     0.21796251     0.94745013     0.40459488
     0.22871135     0.95855726     0.40459488
     0.23946018     0.96966439     0.40459488
     0.25020902     0.98077152     0.40459488
     0.26095785     0.99187865     0.40459488
     0.01409293     0.70345156     0.40459488
     0.02484176     0.71455869     0.40459488
     0.03559060     0.72566582     0.40459488
     0.04633944     0.73677295     0.40459488
     0.05708827     0.74788008     0.40459488
     0.06783711     0.75898721     0.40459488
     0.07858594     0.77009434     0.40459488
     0.08933478     0.78120147     0.40459488
     0.10008361     0.79230860     0.40459488
     0.11083245     0.80341573     0.40459488
     0.12158128     0.81452286     0.40459488
     0.13233012     0.82562999     0.40459488
     0.14307896     0.83673712     0.40459488
     0.15382779     0.84784425     0.40459488
     0.16457663     0.85895138     0.40459488
     0.17532546     0.87005851     0.40459488
     0.18607430     0.88116564     0.40459488
     0.19682313     0.89227277     0.40459488
     0.20757197     0.90337990     0.40459488
     0.21832080     0.91448703     0.40459488
     0.22906964     0.92559416     0.40459488
     0.23981848     0.93670129     0.40459488
     0.25056731     0.94780842     0.40459488
     0.26131615     0.95891555     0.40459488
     0.27206498     0.97002268     0.40459488
     0.28281382     0.98112981     0.40459488
     0.29356265     0.99223694     0.40459488
     0.01445122     0.67048846     0.40459488
     0.02520006     0.68159559     0.40459488
     0.03594889     0.69270272     0.40459488
     0.04669773     0.70380985     0.40459488
     0.05744657     0.71491698     0.40459488
     0.06819540     0.72602411     0.40459488
     0.07894424     0.73713124     0.40459488
     0.08969307     0.74823837     0.40459488
     0.10044191     0.75934550     0.40459488
     0.11119074     0.77045263     0.40459488
     0.12193958     0.78155976     0.40459488
     0.13268841     0.79266689     0.40459488
     0.14343725     0.80377402     0.40459488
     0.15418609     0.81488115     0.40459488
     0.16493492     0.82598828     0.40459488
     0.17568376     0.83709541     0.40459488
     0.18643259     0.84820254     0.40459488
     0.19718143     0.85930968     0.40459488
     0.20793026     0.87041681     0.40459488
     0.21867910     0.88152394     0.40459488
     0.22942793     0.89263107     0.40459488
     0.24017677     0.90373820     0.40459488
     0.25092561     0.91484533     0.40459488
     0.26167444     0.92595246     0.40459488
     0.27242328     0.93705959     0.40459488
     0.28317211     0.94816672     0.40459488
     0.29392095     0.95927385     0.40459488
     0.30466978     0.97038098     0.40459488
     0.31541862     0.98148811     0.40459488
     0.32616745     0.99259524     0.40459488
     0.01480952     0.63752537     0.40459488
     0.02555835     0.64863250     0.40459488
     0.03630719     0.65973963     0.40459488
     0.04705602     0.67084676     0.40459488
     0.05780486     0.68195389     0.40459488
     0.06855370     0.69306102     0.40459488
     0.07930253     0.70416815     0.40459488
     0.09005137     0.71527528     0.40459488
     0.10080020     0.72638241     0.40459488
     0.11154904     0.73748954     0.40459488
     0.12229787     0.74859667     0.40459488
     0.13304671     0.75970380     0.40459488
     0.14379554     0.77081093     0.40459488
     0.15454438     0.78191806     0.40459488
     0.16529322     0.79302519     0.40459488
     0.17604205     0.80413232     0.40459488
     0.18679089     0.81523945     0.40459488
     0.19753972     0.82634658     0.40459488
     0.20828856     0.83745371     0.40459488
     0.21903739     0.84856084     0.40459488
     0.22978623     0.85966797     0.40459488
     0.24053506     0.87077510     0.40459488
     0.25128390     0.88188223     0.40459488
     0.26203274     0.89298936     0.40459488
     0.27278157     0.90409649     0.40459488
     0.28353041     0.91520362     0.40459488
     0.29427924     0.92631075     0.40459488
     0.30502808     0.93741788     0.40459488
     0.31577691     0.94852501     0.40459488
     0.32652575     0.95963214     0.40459488
     0.33727458     0.97073927     0.40459488
     0.34802342     0.98184640     0.40459488
     0.35877226     0.99295353     0.40459488
     0.01516781     0.60456227     0.40459488
     0.02591665     0.61566940     0.40459488
     0.03666548     0.62677653     0.40459488
     0.04741432     0.63788366     0.40459488
     0.05816315     0.64899079     0.40459488
     0.06891199     0.66009792     0.40459488
     0.07966083     0.67120505     0.40459488
     0.09040966     0.68231218     0.40459488
     0.10115850     0.69341931     0.40459488
     0.11190733     0.70452644     0.40459488
     0.12265617     0.71563357     0.40459488
     0.13340500     0.72674070     0.40459488
     0.14415384     0.73784783     0.40459488
     0.15490267     0.74895496     0.40459488
     0.16565151     0.76006209     0.40459488
     0.17640035     0.77116922     0.40459488
     0.18714918     0.78227635     0.40459488
     0.19789802     0.79338348     0.40459488
     0.20864685     0.80449061     0.40459488
     0.21939569     0.81559774     0.40459488
     0.23014452     0.82670487     0.40459488
     0.24089336     0.83781200     0.40459488
     0.25164219     0.84891913     0.40459488
     0.26239103     0.86002626     0.40459488
     0.27313987     0.87113339     0.40459488
     0.28388870     0.88224052     0.40459488
     0.29463754     0.89334765     0.40459488
     0.30538637     0.90445478     0.40459488
     0.31613521     0.91556191     0.40459488
     0.32688404     0.92666904     0.40459488
     0.33763288     0.93777617     0.40459488
     0.34838171     0.94888330     0.40459488
     0.35913055     0.95999043     0.40459488
     0.36987939     0.97109756     0.40459488
     0.38062822     0.98220469     0.40459488
     0.39137706     0.99331182     0.40459488
     0.01552611     0.57159918     0.40459488
     0.02627494     0.58270631     0.40459488
     0.03702378     0.59381344     0.40459488
     0.04777261     0.60492057     0.40459488
     0.05852145     0.61602770     0.40459488
     0.06927028     0.62713483     0.40459488
     0.08001912     0.63824196     0.40459488
     0.09076796     0.64934909     0.40459488
     0.10151679     0.66045622     0.40459488
     0.11226563     0.67156335     0.40459488
     0.12301446     0.68267048     0.40459488
     0.13376330     0.69377761     0.40459488
     0.14451213     0.70488474     0.40459488
     0.15526097     0.71599187     0.40459488
     0.16600980     0.72709900     0.40459488
     0.17675864     0.73820613     0.40459488
     0.18750748     0.74931326     0.40459488
     0.19825631     0.76042039     0.40459488
     0.20900515     0.77152752     0.40459488
     0.21975398     0.78263465     0.40459488
     0.23050282     0.79374178     0.40459488
     0.24125165     0.80484891     0.40459488
     0.25200049     0.81595604     0.40459488
     0.26274932     0.82706317     0.40459488
     0.27349816     0.83817030     0.40459488
     0.28424700     0.84927743     0.40459488
     0.29499583     0.86038456     0.40459488
     0.30574467     0.87149169     0.40459488
     0.31649350     0.88259882     0.40459488
     0.32724234     0.89370595     0.40459488
     0.33799117     0.90481308     0.40459488
     0.34874001     0.91592021     0.40459488
     0.35948884     0.92702734     0.40459488
     0.37023768     0.93813447     0.40459488
     0.38098652     0.94924160     0.40459488
     0.39173535     0.96034873     0.40459488
     0.40248419     0.97145586     0.40459488
     0.41323302     0.98256299     0.40459488
     0.42398186     0.99367012     0.40459488
     0.01588440     0.53863608     0.40459488
     0.02663324     0.54974321     0.40459488
     0.03738207     0.56085034     0.40459488
     0.04813091     0.57195747     0.40459488
     0.05887974     0.58306460     0.40459488
     0.06962858     0.59417173     0.40459488
     0.08037741     0.60527886     0.40459488
     0.09112625     0.61638599     0.40459488
     0.10187509     0.62749312     0.40459488
     0.11262392     0.63860025     0.40459488
     0.12337276     0.64970738     0.40459488
     0.13412159     0.66081451     0.40459488
     0.14487043     0.67192164     0.40459488
     0.15561926     0.68302877     0.40459488
     0.16636810     0.69413590     0.40459488
     0.17711693     0.70524303     0.40459488
     0.18786577     0.71635016     0.40459488
     0.19861461     0.72745729     0.40459488
     0.20936344     0.73856442     0.40459488
     0.22011228     0.74967155     0.40459488
     0.23086111     0.76077868     0.40459488
     0.24160995     0.77188581     0.40459488
     0.25235878     0.78299294     0.40459488
     0.26310762     0.79410007     0.40459488
     0.27385645     0.80520720     0.40459488
     0.28460529     0.81631433     0.40459488
     0.29535413     0.82742146     0.40459488
     0.30610296     0.83852859     0.40459488
     0.31685180     0.84963572     0.40459488
     0.32760063     0.86074285     0.40459488
     0.33834947     0.87184998     0.40459488
     0.34909830     0.88295711     0.40459488
     0.35984714     0.89406424     0.40459488
     0.37059597     0.90517137     0.40459488
     0.38134481     0.91627850     0.40459488
     0.39209365     0.92738563     0.40459488
     0.40284248     0.93849276     0.40459488
     0.41359132     0.94959989     0.40459488
     0.42434015     0.96070702     0.40459488
     0.43508899     0.97181415     0.40459488
     0.44583782     0.98292128     0.40459488
     0.45658666     0.99402841     0.40459488
     0.01624270     0.50567299     0.40459488
     0.02699153     0.51678012     0.40459488
     0.03774037     0.52788725     0.40459488
     0.04848920     0.53899438     0.40459488
     0.05923804     0.55010151     0.40459488
     0.06998687     0.56120864     0.40459488
     0.08073571     0.57231577     0.40459488
     0.09148454     0.58342290     0.40459488
     0.10223338     0.59453003     0.40459488
     0.11298222     0.60563716     0.40459488
     0.12373105     0.61674429     0.40459488
     0.13447989     0.62785142     0.40459488
     0.14522872     0.63895855     0.40459488
     0.15597756     0.65006568     0.40459488
     0.16672639     0.66117281     0.40459488
     0.17747523     0.67227994     0.40459488
     0.18822406     0.68338707     0.40459488
     0.19897290     0.69449420     0.40459488
     0.20972174     0.70560133     0.40459488
     0.22047057     0.71670846     0.40459488
     0.23121941     0.72781559     0.40459488
     0.24196824     0.73892272     0.40459488
     0.25271708     0.75002985     0.40459488
     0.26346591     0.76113698     0.40459488
     0.27421475     0.77224411     0.40459488
     0.28496358     0.78335124     0.40459488
     0.29571242     0.79445837     0.40459488
     0.30646126     0.80556550     0.40459488
     0.31721009     0.81667263     0.40459488
     0.32795893     0.82777976     0.40459488
     0.33870776     0.83888689     0.40459488
     0.34945660     0.84999402     0.40459488
     0.36020543     0.86110115     0.40459488
     0.37095427     0.87220828     0.40459488
     0.38170310     0.88331541     0.40459488
     0.39245194     0.89442254     0.40459488
     0.40320078     0.90552967     0.40459488
     0.41394961     0.91663680     0.40459488
     0.42469845     0.92774393     0.40459488
     0.43544728     0.93885106     0.40459488
     0.44619612     0.94995819     0.40459488
     0.45694495     0.96106532     0.40459488
     0.46769379     0.97217245     0.40459488
     0.47844262     0.98327958     0.40459488
     0.48919146     0.99438671     0.40459488
     0.01660099     0.47270989     0.40459488
     0.02734983     0.48381702     0.40459488
     0.03809866     0.49492415     0.40459488
     0.04884750     0.50603128     0.40459488
     0.05959633     0.51713841     0.40459488
     0.07034517     0.52824554     0.40459488
     0.08109400     0.53935267     0.40459488
     0.09184284     0.55045980     0.40459488
     0.10259167     0.56156693     0.40459488
     0.11334051     0.57267406     0.40459488
     0.12408935     0.58378119     0.40459488
     0.13483818     0.59488832     0.40459488
     0.14558702     0.60599545     0.40459488
     0.15633585     0.61710258     0.40459488
     0.16708469     0.62820971     0.40459488
     0.17783352     0.63931684     0.40459488
     0.18858236     0.65042397     0.40459488
     0.19933119     0.66153110     0.40459488
     0.21008003     0.67263823     0.40459488
     0.22082887     0.68374536     0.40459488
     0.23157770     0.69485249     0.40459488
     0.24232654     0.70595962     0.40459488
     0.25307537     0.71706675     0.40459488
     0.26382421     0.72817388     0.40459488
     0.27457304     0.73928101     0.40459488
     0.28532188     0.75038814     0.40459488
     0.29607071     0.76149527     0.40459488
     0.30681955     0.77260240     0.40459488
     0.31756839     0.78370953     0.40459488
     0.32831722     0.79481666     0.40459488
     0.33906606     0.80592379     0.40459488
     0.34981489     0.81703092     0.40459488
     0.36056373     0.82813805     0.40459488
     0.37131256     0.83924518     0.40459488
     0.38206140     0.85035231     0.40459488
     0.39281023     0.86145944     0.40459488
     0.40355907     0.87256657     0.40459488
     0.41430791     0.88367370     0.40459488
     0.42505674     0.89478083     0.40459488
     0.43580558     0.90588796     0.40459488
     0.44655441     0.91699509     0.40459488
     0.45730325     0.92810222     0.40459488
     0.46805208     0.93920935     0.40459488
     0.47880092     0.95031648     0.40459488
     0.48954975     0.96142361     0.40459488
     0.50029859     0.97253074     0.40459488
     0.51104743     0.98363787     0.40459488
     0.52179626     0.99474500     0.40459488
     0.01695928     0.43974679     0.40459488
     0.02770812     0.45085392     0.40459488
     0.03845696     0.46196105     0.40459488
     0.04920579     0.47306818     0.40459488
     0.05995463     0.48417531     0.40459488
     0.07070346     0.49528244     0.40459488
     0.08145230     0.50638957     0.40459488
     0.09220113     0.51749670     0.40459488
     0.10294997     0.52860383     0.40459488
     0.11369880     0.53971096     0.40459488
     0.12444764     0.55081809     0.40459488
     0.13519648     0.56192523     0.40459488
     0.14594531     0.57303236     0.40459488
     0.15669415     0.58413949     0.40459488
     0.16744298     0.59524662     0.40459488
     0.17819182     0.60635375     0.40459488
     0.18894065     0.61746088     0.40459488
     0.19968949     0.62856801     0.40459488
     0.21043832     0.63967514     0.40459488
     0.22118716     0.65078227     0.40459488
     0.23193600     0.66188940     0.40459488
     0.24268483     0.67299653     0.40459488
     0.25343367     0.68410366     0.40459488
     0.26418250     0.69521079     0.40459488
     0.27493134     0.70631792     0.40459488
     0.28568017     0.71742505     0.40459488
     0.29642901     0.72853218     0.40459488
     0.30717784     0.73963931     0.40459488
     0.31792668     0.75074644     0.40459488
     0.32867552     0.76185357     0.40459488
     0.33942435     0.77296070     0.40459488
     0.35017319     0.78406783     0.40459488
     0.36092202     0.79517496     0.40459488
     0.37167086     0.80628209     0.40459488
     0.38241969     0.81738922     0.40459488
     0.39316853     0.82849635     0.40459488
     0.40391736     0.83960348     0.40459488
     0.41466620     0.85071061     0.40459488
     0.42541504     0.86181774     0.40459488
     0.43616387     0.87292487     0.40459488
     0.44691271     0.88403200     0.40459488
     0.45766154     0.89513913     0.40459488
     0.46841038     0.90624626     0.40459488
     0.47915921     0.91735339     0.40459488
     0.48990805     0.92846052     0.40459488
     0.50065688     0.93956765     0.40459488
     0.51140572     0.95067478     0.40459488
     0.52215456     0.96178191     0.40459488
     0.53290339     0.97288904     0.40459488
     0.54365223     0.98399617     0.40459488
     0.55440106     0.99510330     0.40459488
     0.01731758     0.40678370     0.40459488
     0.02806641     0.41789083     0.40459488
     0.03881525     0.42899796     0.40459488
     0.04956409     0.44010509     0.40459488
     0.06031292     0.45121222     0.40459488
     0.07106176     0.46231935     0.40459488
     0.08181059     0.47342648     0.40459488
     0.09255943     0.48453361     0.40459488
     0.10330826     0.49564074     0.40459488
     0.11405710     0.50674787     0.40459488
     0.12480593     0.51785500     0.40459488
     0.13555477     0.52896213     0.40459488
     0.14630361     0.54006926     0.40459488
     0.15705244     0.55117639     0.40459488
     0.16780128     0.56228352     0.40459488
     0.17855011     0.57339065     0.40459488
     0.18929895     0.58449778     0.40459488
     0.20004778     0.59560491     0.40459488
     0.21079662     0.60671204     0.40459488
     0.22154545     0.61781917     0.40459488
     0.23229429     0.62892630     0.40459488
     0.24304313     0.64003343     0.40459488
     0.25379196     0.65114056     0.40459488
     0.26454080     0.66224769     0.40459488
     0.27528963     0.67335482     0.40459488
     0.28603847     0.68446195     0.40459488
     0.29678730     0.69556908     0.40459488
     0.30753614     0.70667621     0.40459488
     0.31828497     0.71778334     0.40459488
     0.32903381     0.72889047     0.40459488
     0.33978265     0.73999760     0.40459488
     0.35053148     0.75110473     0.40459488
     0.36128032     0.76221186     0.40459488
     0.37202915     0.77331899     0.40459488
     0.38277799     0.78442612     0.40459488
     0.39352682     0.79553325     0.40459488
     0.40427566     0.80664038     0.40459488
     0.41502449     0.81774751     0.40459488
     0.42577333     0.82885464     0.40459488
     0.43652217     0.83996177     0.40459488
     0.44727100     0.85106890     0.40459488
     0.45801984     0.86217603     0.40459488
     0.46876867     0.87328316     0.40459488
     0.47951751     0.88439029     0.40459488
     0.49026634     0.89549742     0.40459488
     0.50101518     0.90660455     0.40459488
     0.51176401     0.91771168     0.40459488
     0.52251285     0.92881881     0.40459488
     0.53326169     0.93992594     0.40459488
     0.54401052     0.95103307     0.40459488
     0.55475936     0.96214020     0.40459488
     0.56550819     0.97324733     0.40459488
     0.57625703     0.98435446     0.40459488
     0.58700586     0.99546159     0.40459488
     0.01767587     0.37382060     0.40459488
     0.02842471     0.38492773     0.40459488
     0.03917354     0.39603486     0.40459488
     0.04992238     0.40714199     0.40459488
     0.06067122     0.41824912     0.40459488
     0.07142005     0.42935625     0.40459488
     0.08216889     0.44046338     0.40459488
     0.09291772     0.45157051     0.40459488
     0.10366656     0.46267764     0.40459488
     0.11441539     0.47378477     0.40459488
     0.12516423     0.48489190     0.40459488
     0.13591306     0.49599903     0.40459488
     0.14666190     0.50710616     0.40459488
     0.15741074     0.51821329     0.40459488
     0.16815957     0.52932042     0.40459488
     0.17890841     0.54042755     0.40459488
     0.18965724     0.55153468     0.40459488
     0.20040608     0.56264181     0.40459488
     0.21115491     0.57374894     0.40459488
     0.22190375     0.58485607     0.40459488
     0.23265258     0.59596320     0.40459488
     0.24340142     0.60707033     0.40459488
     0.25415026     0.61817746     0.40459488
     0.26489909     0.62928459     0.40459488
     0.27564793     0.64039172     0.40459488
     0.28639676     0.65149885     0.40459488
     0.29714560     0.66260598     0.40459488
     0.30789443     0.67371311     0.40459488
     0.31864327     0.68482024     0.40459488
     0.32939210     0.69592737     0.40459488
     0.34014094     0.70703450     0.40459488
     0.35088978     0.71814163     0.40459488
     0.36163861     0.72924876     0.40459488
     0.37238745     0.74035590     0.40459488
     0.38313628     0.75146303     0.40459488
     0.39388512     0.76257016     0.40459488
     0.40463395     0.77367729     0.40459488
     0.41538279     0.78478442     0.40459488
     0.42613162     0.79589155     0.40459488
     0.43688046     0.80699868     0.40459488
     0.44762930     0.81810581     0.40459488
     0.45837813     0.82921294     0.40459488
     0.46912697     0.84032007     0.40459488
     0.47987580     0.85142720     0.40459488
     0.49062464     0.86253433     0.40459488
     0.50137347     0.87364146     0.40459488
     0.51212231     0.88474859     0.40459488
     0.52287114     0.89585572     0.40459488
     0.53361998     0.90696285     0.40459488
     0.54436882     0.91806998     0.40459488
     0.55511765     0.92917711     0.40459488
     0.56586649     0.94028424     0.40459488
     0.57661532     0.95139137     0.40459488
     0.58736416     0.96249850     0.40459488
     0.59811299     0.97360563     0.40459488
     0.60886183     0.98471276     0.40459488
     0.61961066     0.99581989     0.40459488
     0.01803417     0.34085751     0.40459488
     0.02878300     0.35196464     0.40459488
     0.03953184     0.36307177     0.40459488
     0.05028068     0.37417890     0.40459488
     0.06102951     0.38528603     0.40459488
     0.07177835     0.39639316     0.40459488
     0.08252718     0.40750029     0.40459488
     0.09327602     0.41860742     0.40459488
     0.10402485     0.42971455     0.40459488
     0.11477369     0.44082168     0.40459488
     0.12552252     0.45192881     0.40459488
     0.13627136     0.46303594     0.40459488
     0.14702019     0.47414307     0.40459488
     0.15776903     0.48525020     0.40459488
     0.16851787     0.49635733     0.40459488
     0.17926670     0.50746446     0.40459488
     0.19001554     0.51857159     0.40459488
     0.20076437     0.52967872     0.40459488
     0.21151321     0.54078585     0.40459488
     0.22226204     0.55189298     0.40459488
     0.23301088     0.56300011     0.40459488
     0.24375971     0.57410724     0.40459488
     0.25450855     0.58521437     0.40459488
     0.26525739     0.59632150     0.40459488
     0.27600622     0.60742863     0.40459488
     0.28675506     0.61853576     0.40459488
     0.29750389     0.62964289     0.40459488
     0.30825273     0.64075002     0.40459488
     0.31900156     0.65185715     0.40459488
     0.32975040     0.66296428     0.40459488
     0.34049923     0.67407141     0.40459488
     0.35124807     0.68517854     0.40459488
     0.36199691     0.69628567     0.40459488
     0.37274574     0.70739280     0.40459488
     0.38349458     0.71849993     0.40459488
     0.39424341     0.72960706     0.40459488
     0.40499225     0.74071419     0.40459488
     0.41574108     0.75182132     0.40459488
     0.42648992     0.76292845     0.40459488
     0.43723875     0.77403558     0.40459488
     0.44798759     0.78514271     0.40459488
     0.45873643     0.79624984     0.40459488
     0.46948526     0.80735697     0.40459488
     0.48023410     0.81846410     0.40459488
     0.49098293     0.82957123     0.40459488
     0.50173177     0.84067836     0.40459488
     0.51248060     0.85178549     0.40459488
     0.52322944     0.86289262     0.40459488
     0.53397827     0.87399975     0.40459488
     0.54472711     0.88510688     0.40459488
     0.55547595     0.89621401     0.40459488
     0.56622478     0.90732114     0.40459488
     0.57697362     0.91842827     0.40459488
     0.58772245     0.92953540     0.40459488
     0.59847129     0.94064253     0.40459488
     0.60922012     0.95174966     0.40459488
     0.61996896     0.96285679     0.40459488
     0.63071779     0.97396392     0.40459488
     0.64146663     0.98507105     0.40459488
     0.65221547     0.99617818     0.40459488
     0.01839246     0.30789441     0.40459488
     0.02914130     0.31900154     0.40459488
     0.03989013     0.33010867     0.40459488
     0.05063897     0.34121580     0.40459488
     0.06138781     0.35232293     0.40459488
     0.07213664     0.36343006     0.40459488
     0.08288548     0.37453719     0.40459488
     0.09363431     0.38564432     0.40459488
     0.10438315     0.39675145     0.40459488
     0.11513198     0.40785858     0.40459488
     0.12588082     0.41896571     0.40459488
     0.13662965     0.43007284     0.40459488
     0.14737849     0.44117997     0.40459488
     0.15812732     0.45228710     0.40459488
     0.16887616     0.46339423     0.40459488
     0.17962500     0.47450136     0.40459488
     0.19037383     0.48560849     0.40459488