Sn2 S4                                  
   1.00000000000000     
     3.7541271130881806    0.0000000000000000    0.0000000000000000
     0.0000000000000000    3.7541271130881819    0.0000000000000000
     0.0000000000000000    0.0000000000000000   25.0000000000000000
   Sn   S 
     2     4
Direct
  0.0000000000000000  0.0000000000000000  0.3741992015755145
  0.0000000000000000  0.0000000000000000  0.6067887984244891
  0.5000000000000000  0.0000000000000000  0.3124721440498348
  0.0000000000000000  0.5000000000000000  0.4358318026879786
  0.5000000000000000  0.0000000000000000  0.5451561973120249
  0.0000000000000000  0.5000000000000000  0.6685158559501616
