Generated by Twist2D
    1.0
       3.75412711       7.50825423       0.00000000
      -7.50825423       3.75412711       0.00000000
       0.00000000       0.00000000      25.00000000
    Sn  S
    10  20
Direct
     0.20000000     0.60000000     0.37419920
     0.60000000     0.80000000     0.37419920
     0.00000000     0.00000000     0.37419920
     0.40000000     0.20000000     0.37419920
     0.80000000     0.40000000     0.37419920
     0.00000000     0.00000000     0.60678880
     0.20000000     0.40000000     0.60678880
     0.40000000     0.80000000     0.60678880
     0.60000000     0.20000000     0.60678880
     0.80000000     0.60000000     0.60678880
     0.30000000     0.40000000     0.31247214
     0.70000000     0.60000000     0.31247214
     0.10000000    -0.20000000     0.31247214
     0.50000000     0.00000000     0.31247214
     0.90000000     0.20000000     0.31247214
     0.40000000     0.70000000     0.43583180
     0.80000000     0.90000000     0.43583180
     0.20000000     0.10000000     0.43583180
     0.60000000     0.30000000     0.43583180
     1.00000000     0.50000000     0.43583180
     0.20000000    -0.10000000     0.54515620
     0.40000000     0.30000000     0.54515620
     0.60000000     0.70000000     0.54515620
     0.80000000     0.10000000     0.54515620
     1.00000000     0.50000000     0.54515620
     0.10000000     0.20000000     0.66851586
     0.30000000     0.60000000     0.66851586
     0.50000000     1.00000000     0.66851586
     0.70000000     0.40000000     0.66851586
     0.90000000     0.80000000     0.66851586
