Generated by Twist2D
    1.0
     112.62381339     116.37794051       0.00000000
    -116.37794051     112.62381339       0.00000000
       0.00000000       0.00000000      25.00000000
    Sn  S
    3722  7444
Direct
     0.01612037     0.98334229     0.37419920
     0.03277808     0.99946265     0.37419920
     0.01558302     0.95056421     0.37419920
     0.03224073     0.96668458     0.37419920
     0.04889844     0.98280494     0.37419920
     0.06555615     0.99892531     0.37419920
     0.01504567     0.91778614     0.37419920
     0.03170339     0.93390650     0.37419920
     0.04836110     0.95002687     0.37419920
     0.06501881     0.96614723     0.37419920
     0.08167652     0.98226760     0.37419920
     0.09833423     0.99838796     0.37419920
     0.01450833     0.88500806     0.37419920
     0.03116604     0.90112843     0.37419920
     0.04782375     0.91724879     0.37419920
     0.06448146     0.93336916     0.37419920
     0.08113917     0.94948952     0.37419920
     0.09779688     0.96560989     0.37419920
     0.11445459     0.98173025     0.37419920
     0.13111231     0.99785062     0.37419920
     0.01397098     0.85222998     0.37419920
     0.03062869     0.86835035     0.37419920
     0.04728641     0.88447071     0.37419920
     0.06394412     0.90059108     0.37419920
     0.08060183     0.91671145     0.37419920
     0.09725954     0.93283181     0.37419920
     0.11391725     0.94895218     0.37419920
     0.13057496     0.96507254     0.37419920
     0.14723267     0.98119291     0.37419920
     0.16389038     0.99731327     0.37419920
     0.01343364     0.81945191     0.37419920
     0.03009135     0.83557227     0.37419920
     0.04674906     0.85169264     0.37419920
     0.06340677     0.86781300     0.37419920
     0.08006448     0.88393337     0.37419920
     0.09672219     0.90005373     0.37419920
     0.11337990     0.91617410     0.37419920
     0.13003761     0.93229447     0.37419920
     0.14669533     0.94841483     0.37419920
     0.16335304     0.96453520     0.37419920
     0.18001075     0.98065556     0.37419920
     0.19666846     0.99677593     0.37419920
     0.01289629     0.78667383     0.37419920
     0.02955400     0.80279420     0.37419920
     0.04621171     0.81891456     0.37419920
     0.06286943     0.83503493     0.37419920
     0.07952714     0.85115529     0.37419920
     0.09618485     0.86727566     0.37419920
     0.11284256     0.88339602     0.37419920
     0.12950027     0.89951639     0.37419920
     0.14615798     0.91563675     0.37419920
     0.16281569     0.93175712     0.37419920
     0.17947340     0.94787749     0.37419920
     0.19613111     0.96399785     0.37419920
     0.21278882     0.98011822     0.37419920
     0.22944653     0.99623858     0.37419920
     0.01235895     0.75389575     0.37419920
     0.02901666     0.77001612     0.37419920
     0.04567437     0.78613649     0.37419920
     0.06233208     0.80225685     0.37419920
     0.07898979     0.81837722     0.37419920
     0.09564750     0.83449758     0.37419920
     0.11230521     0.85061795     0.37419920
     0.12896292     0.86673831     0.37419920
     0.14562063     0.88285868     0.37419920
     0.16227834     0.89897904     0.37419920
     0.17893606     0.91509941     0.37419920
     0.19559377     0.93121977     0.37419920
     0.21225148     0.94734014     0.37419920
     0.22890919     0.96346051     0.37419920
     0.24556690     0.97958087     0.37419920
     0.26222461     0.99570124     0.37419920
     0.01182160     0.72111768     0.37419920
     0.02847931     0.73723804     0.37419920
     0.04513702     0.75335841     0.37419920
     0.06179473     0.76947877     0.37419920
     0.07845244     0.78559914     0.37419920
     0.09511016     0.80171951     0.37419920
     0.11176787     0.81783987     0.37419920
     0.12842558     0.83396024     0.37419920
     0.14508329     0.85008060     0.37419920
     0.16174100     0.86620097     0.37419920
     0.17839871     0.88232133     0.37419920
     0.19505642     0.89844170     0.37419920
     0.21171413     0.91456206     0.37419920
     0.22837184     0.93068243     0.37419920
     0.24502955     0.94680279     0.37419920
     0.26168726     0.96292316     0.37419920
     0.27834498     0.97904352     0.37419920
     0.29500269     0.99516389     0.37419920
     0.01128426     0.68833960     0.37419920
     0.02794197     0.70445997     0.37419920
     0.04459968     0.72058033     0.37419920
     0.06125739     0.73670070     0.37419920
     0.07791510     0.75282106     0.37419920
     0.09457281     0.76894143     0.37419920
     0.11123052     0.78506179     0.37419920
     0.12788823     0.80118216     0.37419920
     0.14454594     0.81730253     0.37419920
     0.16120365     0.83342289     0.37419920
     0.17786136     0.84954326     0.37419920
     0.19451908     0.86566362     0.37419920
     0.21117679     0.88178399     0.37419920
     0.22783450     0.89790435     0.37419920
     0.24449221     0.91402472     0.37419920
     0.26114992     0.93014508     0.37419920
     0.27780763     0.94626545     0.37419920
     0.29446534     0.96238581     0.37419920
     0.31112305     0.97850618     0.37419920
     0.32778076     0.99462654     0.37419920
     0.01074691     0.65556153     0.37419920
     0.02740462     0.67168189     0.37419920
     0.04406233     0.68780226     0.37419920
     0.06072004     0.70392262     0.37419920
     0.07737775     0.72004299     0.37419920
     0.09403546     0.73616335     0.37419920
     0.11069318     0.75228372     0.37419920
     0.12735089     0.76840408     0.37419920
     0.14400860     0.78452445     0.37419920
     0.16066631     0.80064481     0.37419920
     0.17732402     0.81676518     0.37419920
     0.19398173     0.83288555     0.37419920
     0.21063944     0.84900591     0.37419920
     0.22729715     0.86512628     0.37419920
     0.24395486     0.88124664     0.37419920
     0.26061257     0.89736701     0.37419920
     0.27727028     0.91348737     0.37419920
     0.29392800     0.92960774     0.37419920
     0.31058571     0.94572810     0.37419920
     0.32724342     0.96184847     0.37419920
     0.34390113     0.97796883     0.37419920
     0.36055884     0.99408920     0.37419920
     0.01020956     0.62278345     0.37419920
     0.02686728     0.63890382     0.37419920
     0.04352499     0.65502418     0.37419920
     0.06018270     0.67114455     0.37419920
     0.07684041     0.68726491     0.37419920
     0.09349812     0.70338528     0.37419920
     0.11015583     0.71950564     0.37419920
     0.12681354     0.73562601     0.37419920
     0.14347125     0.75174637     0.37419920
     0.16012896     0.76786674     0.37419920
     0.17678667     0.78398710     0.37419920
     0.19344438     0.80010747     0.37419920
     0.21010210     0.81622783     0.37419920
     0.22675981     0.83234820     0.37419920
     0.24341752     0.84846857     0.37419920
     0.26007523     0.86458893     0.37419920
     0.27673294     0.88070930     0.37419920
     0.29339065     0.89682966     0.37419920
     0.31004836     0.91295003     0.37419920
     0.32670607     0.92907039     0.37419920
     0.34336378     0.94519076     0.37419920
     0.36002149     0.96131112     0.37419920
     0.37667920     0.97743149     0.37419920
     0.39333692     0.99355185     0.37419920
     0.00967222     0.59000537     0.37419920
     0.02632993     0.60612574     0.37419920
     0.04298764     0.62224610     0.37419920
     0.05964535     0.63836647     0.37419920
     0.07630306     0.65448684     0.37419920
     0.09296077     0.67060720     0.37419920
     0.10961848     0.68672757     0.37419920
     0.12627620     0.70284793     0.37419920
     0.14293391     0.71896830     0.37419920
     0.15959162     0.73508866     0.37419920
     0.17624933     0.75120903     0.37419920
     0.19290704     0.76732939     0.37419920
     0.20956475     0.78344976     0.37419920
     0.22622246     0.79957012     0.37419920
     0.24288017     0.81569049     0.37419920
     0.25953788     0.83181085     0.37419920
     0.27619559     0.84793122     0.37419920
     0.29285330     0.86405159     0.37419920
     0.30951102     0.88017195     0.37419920
     0.32616873     0.89629232     0.37419920
     0.34282644     0.91241268     0.37419920
     0.35948415     0.92853305     0.37419920
     0.37614186     0.94465341     0.37419920
     0.39279957     0.96077378     0.37419920
     0.40945728     0.97689414     0.37419920
     0.42611499     0.99301451     0.37419920
     0.00913487     0.55722730     0.37419920
     0.02579258     0.57334766     0.37419920
     0.04245030     0.58946803     0.37419920
     0.05910801     0.60558839     0.37419920
     0.07576572     0.62170876     0.37419920
     0.09242343     0.63782912     0.37419920
     0.10908114     0.65394949     0.37419920
     0.12573885     0.67006985     0.37419920
     0.14239656     0.68619022     0.37419920
     0.15905427     0.70231059     0.37419920
     0.17571198     0.71843095     0.37419920
     0.19236969     0.73455132     0.37419920
     0.20902740     0.75067168     0.37419920
     0.22568512     0.76679205     0.37419920
     0.24234283     0.78291241     0.37419920
     0.25900054     0.79903278     0.37419920
     0.27565825     0.81515314     0.37419920
     0.29231596     0.83127351     0.37419920
     0.30897367     0.84739387     0.37419920
     0.32563138     0.86351424     0.37419920
     0.34228909     0.87963461     0.37419920
     0.35894680     0.89575497     0.37419920
     0.37560451     0.91187534     0.37419920
     0.39226222     0.92799570     0.37419920
     0.40891994     0.94411607     0.37419920
     0.42557765     0.96023643     0.37419920
     0.44223536     0.97635680     0.37419920
     0.45889307     0.99247716     0.37419920
     0.00859753     0.52444922     0.37419920
     0.02525524     0.54056959     0.37419920
     0.04191295     0.55668995     0.37419920
     0.05857066     0.57281032     0.37419920
     0.07522837     0.58893068     0.37419920
     0.09188608     0.60505105     0.37419920
     0.10854379     0.62117141     0.37419920
     0.12520150     0.63729178     0.37419920
     0.14185922     0.65341214     0.37419920
     0.15851693     0.66953251     0.37419920
     0.17517464     0.68565287     0.37419920
     0.19183235     0.70177324     0.37419920
     0.20849006     0.71789361     0.37419920
     0.22514777     0.73401397     0.37419920
     0.24180548     0.75013434     0.37419920
     0.25846319     0.76625470     0.37419920
     0.27512090     0.78237507     0.37419920
     0.29177861     0.79849543     0.37419920
     0.30843632     0.81461580     0.37419920
     0.32509404     0.83073616     0.37419920
     0.34175175     0.84685653     0.37419920
     0.35840946     0.86297689     0.37419920
     0.37506717     0.87909726     0.37419920
     0.39172488     0.89521762     0.37419920
     0.40838259     0.91133799     0.37419920
     0.42504030     0.92745836     0.37419920
     0.44169801     0.94357872     0.37419920
     0.45835572     0.95969909     0.37419920
     0.47501343     0.97581945     0.37419920
     0.49167114     0.99193982     0.37419920
     0.00806018     0.49167114     0.37419920
     0.02471789     0.50779151     0.37419920
     0.04137560     0.52391188     0.37419920
     0.05803332     0.54003224     0.37419920
     0.07469103     0.55615261     0.37419920
     0.09134874     0.57227297     0.37419920
     0.10800645     0.58839334     0.37419920
     0.12466416     0.60451370     0.37419920
     0.14132187     0.62063407     0.37419920
     0.15797958     0.63675443     0.37419920
     0.17463729     0.65287480     0.37419920
     0.19129500     0.66899516     0.37419920
     0.20795271     0.68511553     0.37419920
     0.22461042     0.70123589     0.37419920
     0.24126814     0.71735626     0.37419920
     0.25792585     0.73347663     0.37419920
     0.27458356     0.74959699     0.37419920
     0.29124127     0.76571736     0.37419920
     0.30789898     0.78183772     0.37419920
     0.32455669     0.79795809     0.37419920
     0.34121440     0.81407845     0.37419920
     0.35787211     0.83019882     0.37419920
     0.37452982     0.84631918     0.37419920
     0.39118753     0.86243955     0.37419920
     0.40784524     0.87855991     0.37419920
     0.42450296     0.89468028     0.37419920
     0.44116067     0.91080064     0.37419920
     0.45781838     0.92692101     0.37419920
     0.47447609     0.94304138     0.37419920
     0.49113380     0.95916174     0.37419920
     0.50779151     0.97528211     0.37419920
     0.52444922     0.99140247     0.37419920
     0.00752284     0.45889307     0.37419920
     0.02418055     0.47501343     0.37419920
     0.04083826     0.49113380     0.37419920
     0.05749597     0.50725416     0.37419920
     0.07415368     0.52337453     0.37419920
     0.09081139     0.53949490     0.37419920
     0.10746910     0.55561526     0.37419920
     0.12412681     0.57173563     0.37419920
     0.14078452     0.58785599     0.37419920
     0.15744224     0.60397636     0.37419920
     0.17409995     0.62009672     0.37419920
     0.19075766     0.63621709     0.37419920
     0.20741537     0.65233745     0.37419920
     0.22407308     0.66845782     0.37419920
     0.24073079     0.68457818     0.37419920
     0.25738850     0.70069855     0.37419920
     0.27404621     0.71681891     0.37419920
     0.29070392     0.73293928     0.37419920
     0.30736163     0.74905965     0.37419920
     0.32401934     0.76518001     0.37419920
     0.34067706     0.78130038     0.37419920
     0.35733477     0.79742074     0.37419920
     0.37399248     0.81354111     0.37419920
     0.39065019     0.82966147     0.37419920
     0.40730790     0.84578184     0.37419920
     0.42396561     0.86190220     0.37419920
     0.44062332     0.87802257     0.37419920
     0.45728103     0.89414293     0.37419920
     0.47393874     0.91026330     0.37419920
     0.49059645     0.92638366     0.37419920
     0.50725416     0.94250403     0.37419920
     0.52391188     0.95862440     0.37419920
     0.54056959     0.97474476     0.37419920
     0.55722730     0.99086513     0.37419920
     0.00698549     0.42611499     0.37419920
     0.02364320     0.44223536     0.37419920
     0.04030091     0.45835572     0.37419920
     0.05695862     0.47447609     0.37419920
     0.07361634     0.49059645     0.37419920
     0.09027405     0.50671682     0.37419920
     0.10693176     0.52283718     0.37419920
     0.12358947     0.53895755     0.37419920
     0.14024718     0.55507792     0.37419920
     0.15690489     0.57119828     0.37419920
     0.17356260     0.58731865     0.37419920
     0.19022031     0.60343901     0.37419920
     0.20687802     0.61955938     0.37419920
     0.22353573     0.63567974     0.37419920
     0.24019344     0.65180011     0.37419920
     0.25685116     0.66792047     0.37419920
     0.27350887     0.68404084     0.37419920
     0.29016658     0.70016120     0.37419920
     0.30682429     0.71628157     0.37419920
     0.32348200     0.73240193     0.37419920
     0.34013971     0.74852230     0.37419920
     0.35679742     0.76464267     0.37419920
     0.37345513     0.78076303     0.37419920
     0.39011284     0.79688340     0.37419920
     0.40677055     0.81300376     0.37419920
     0.42342826     0.82912413     0.37419920
     0.44008598     0.84524449     0.37419920
     0.45674369     0.86136486     0.37419920
     0.47340140     0.87748522     0.37419920
     0.49005911     0.89360559     0.37419920
     0.50671682     0.90972595     0.37419920
     0.52337453     0.92584632     0.37419920
     0.54003224     0.94196668     0.37419920
     0.55668995     0.95808705     0.37419920
     0.57334766     0.97420742     0.37419920
     0.59000537     0.99032778     0.37419920
     0.00644815     0.39333692     0.37419920
     0.02310586     0.40945728     0.37419920
     0.03976357     0.42557765     0.37419920
     0.05642128     0.44169801     0.37419920
     0.07307899     0.45781838     0.37419920
     0.08973670     0.47393874     0.37419920
     0.10639441     0.49005911     0.37419920
     0.12305212     0.50617947     0.37419920
     0.13970983     0.52229984     0.37419920
     0.15636754     0.53842020     0.37419920
     0.17302526     0.55454057     0.37419920
     0.18968297     0.57066093     0.37419920
     0.20634068     0.58678130     0.37419920
     0.22299839     0.60290167     0.37419920
     0.23965610     0.61902203     0.37419920
     0.25631381     0.63514240     0.37419920
     0.27297152     0.65126276     0.37419920
     0.28962923     0.66738313     0.37419920
     0.30628694     0.68350349     0.37419920
     0.32294465     0.69962386     0.37419920
     0.33960236     0.71574422     0.37419920
     0.35626008     0.73186459     0.37419920
     0.37291779     0.74798495     0.37419920
     0.38957550     0.76410532     0.37419920
     0.40623321     0.78022569     0.37419920
     0.42289092     0.79634605     0.37419920
     0.43954863     0.81246642     0.37419920
     0.45620634     0.82858678     0.37419920
     0.47286405     0.84470715     0.37419920
     0.48952176     0.86082751     0.37419920
     0.50617947     0.87694788     0.37419920
     0.52283718     0.89306824     0.37419920
     0.53949490     0.90918861     0.37419920
     0.55615261     0.92530897     0.37419920
     0.57281032     0.94142934     0.37419920
     0.58946803     0.95754970     0.37419920
     0.60612574     0.97367007     0.37419920
     0.62278345     0.98979044     0.37419920
     0.00591080     0.36055884     0.37419920
     0.02256851     0.37667920     0.37419920
     0.03922622     0.39279957     0.37419920
     0.05588393     0.40891994     0.37419920
     0.07254164     0.42504030     0.37419920
     0.08919936     0.44116067     0.37419920
     0.10585707     0.45728103     0.37419920
     0.12251478     0.47340140     0.37419920
     0.13917249     0.48952176     0.37419920
     0.15583020     0.50564213     0.37419920
     0.17248791     0.52176249     0.37419920
     0.18914562     0.53788286     0.37419920
     0.20580333     0.55400322     0.37419920
     0.22246104     0.57012359     0.37419920
     0.23911875     0.58624395     0.37419920
     0.25577646     0.60236432     0.37419920
     0.27243418     0.61848469     0.37419920
     0.28909189     0.63460505     0.37419920
     0.30574960     0.65072542     0.37419920
     0.32240731     0.66684578     0.37419920
     0.33906502     0.68296615     0.37419920
     0.35572273     0.69908651     0.37419920
     0.37238044     0.71520688     0.37419920
     0.38903815     0.73132724     0.37419920
     0.40569586     0.74744761     0.37419920
     0.42235357     0.76356797     0.37419920
     0.43901128     0.77968834     0.37419920
     0.45566900     0.79580870     0.37419920
     0.47232671     0.81192907     0.37419920
     0.48898442     0.82804944     0.37419920
     0.50564213     0.84416980     0.37419920
     0.52229984     0.86029017     0.37419920
     0.53895755     0.87641053     0.37419920
     0.55561526     0.89253090     0.37419920
     0.57227297     0.90865126     0.37419920
     0.58893068     0.92477163     0.37419920
     0.60558839     0.94089199     0.37419920
     0.62224610     0.95701236     0.37419920
     0.63890382     0.97313272     0.37419920
     0.65556153     0.98925309     0.37419920
     0.00537346     0.32778076     0.37419920
     0.02203117     0.34390113     0.37419920
     0.03868888     0.36002149     0.37419920
     0.05534659     0.37614186     0.37419920
     0.07200430     0.39226222     0.37419920
     0.08866201     0.40838259     0.37419920
     0.10531972     0.42450296     0.37419920
     0.12197743     0.44062332     0.37419920
     0.13863514     0.45674369     0.37419920
     0.15529285     0.47286405     0.37419920
     0.17195056     0.48898442     0.37419920
     0.18860828     0.50510478     0.37419920
     0.20526599     0.52122515     0.37419920
     0.22192370     0.53734551     0.37419920
     0.23858141     0.55346588     0.37419920
     0.25523912     0.56958624     0.37419920
     0.27189683     0.58570661     0.37419920
     0.28855454     0.60182697     0.37419920
     0.30521225     0.61794734     0.37419920
     0.32186996     0.63406771     0.37419920
     0.33852767     0.65018807     0.37419920
     0.35518538     0.66630844     0.37419920
     0.37184310     0.68242880     0.37419920
     0.38850081     0.69854917     0.37419920
     0.40515852     0.71466953     0.37419920
     0.42181623     0.73078990     0.37419920
     0.43847394     0.74691026     0.37419920
     0.45513165     0.76303063     0.37419920
     0.47178936     0.77915099     0.37419920
     0.48844707     0.79527136     0.37419920
     0.50510478     0.81139172     0.37419920
     0.52176249     0.82751209     0.37419920
     0.53842020     0.84363246     0.37419920
     0.55507792     0.85975282     0.37419920
     0.57173563     0.87587319     0.37419920
     0.58839334     0.89199355     0.37419920
     0.60505105     0.90811392     0.37419920
     0.62170876     0.92423428     0.37419920
     0.63836647     0.94035465     0.37419920
     0.65502418     0.95647501     0.37419920
     0.67168189     0.97259538     0.37419920
     0.68833960     0.98871574     0.37419920
     0.00483611     0.29500269     0.37419920
     0.02149382     0.31112305     0.37419920
     0.03815153     0.32724342     0.37419920
     0.05480924     0.34336378     0.37419920
     0.07146695     0.35948415     0.37419920
     0.08812466     0.37560451     0.37419920
     0.10478238     0.39172488     0.37419920
     0.12144009     0.40784524     0.37419920
     0.13809780     0.42396561     0.37419920
     0.15475551     0.44008598     0.37419920
     0.17141322     0.45620634     0.37419920
     0.18807093     0.47232671     0.37419920
     0.20472864     0.48844707     0.37419920
     0.22138635     0.50456744     0.37419920
     0.23804406     0.52068780     0.37419920
     0.25470177     0.53680817     0.37419920
     0.27135948     0.55292853     0.37419920
     0.28801720     0.56904890     0.37419920
     0.30467491     0.58516926     0.37419920
     0.32133262     0.60128963     0.37419920
     0.33799033     0.61740999     0.37419920
     0.35464804     0.63353036     0.37419920
     0.37130575     0.64965073     0.37419920
     0.38796346     0.66577109     0.37419920
     0.40462117     0.68189146     0.37419920
     0.42127888     0.69801182     0.37419920
     0.43793659     0.71413219     0.37419920
     0.45459430     0.73025255     0.37419920
     0.47125202     0.74637292     0.37419920
     0.48790973     0.76249328     0.37419920
     0.50456744     0.77861365     0.37419920
     0.52122515     0.79473401     0.37419920
     0.53788286     0.81085438     0.37419920
     0.55454057     0.82697474     0.37419920
     0.57119828     0.84309511     0.37419920
     0.58785599     0.85921548     0.37419920
     0.60451370     0.87533584     0.37419920
     0.62117141     0.89145621     0.37419920
     0.63782912     0.90757657     0.37419920
     0.65448684     0.92369694     0.37419920
     0.67114455     0.93981730     0.37419920
     0.68780226     0.95593767     0.37419920
     0.70445997     0.97205803     0.37419920
     0.72111768     0.98817840     0.37419920
     0.00429876     0.26222461     0.37419920
     0.02095648     0.27834498     0.37419920
     0.03761419     0.29446534     0.37419920
     0.05427190     0.31058571     0.37419920
     0.07092961     0.32670607     0.37419920
     0.08758732     0.34282644     0.37419920
     0.10424503     0.35894680     0.37419920
     0.12090274     0.37506717     0.37419920
     0.13756045     0.39118753     0.37419920
     0.15421816     0.40730790     0.37419920
     0.17087587     0.42342826     0.37419920
     0.18753358     0.43954863     0.37419920
     0.20419130     0.45566900     0.37419920
     0.22084901     0.47178936     0.37419920
     0.23750672     0.48790973     0.37419920
     0.25416443     0.50403009     0.37419920
     0.27082214     0.52015046     0.37419920
     0.28747985     0.53627082     0.37419920
     0.30413756     0.55239119     0.37419920
     0.32079527     0.56851155     0.37419920
     0.33745298     0.58463192     0.37419920
     0.35411069     0.60075228     0.37419920
     0.37076840     0.61687265     0.37419920
     0.38742611     0.63299301     0.37419920
     0.40408383     0.64911338     0.37419920
     0.42074154     0.66523375     0.37419920
     0.43739925     0.68135411     0.37419920
     0.45405696     0.69747448     0.37419920
     0.47071467     0.71359484     0.37419920
     0.48737238     0.72971521     0.37419920
     0.50403009     0.74583557     0.37419920
     0.52068780     0.76195594     0.37419920
     0.53734551     0.77807630     0.37419920
     0.55400322     0.79419667     0.37419920
     0.57066093     0.81031703     0.37419920
     0.58731865     0.82643740     0.37419920
     0.60397636     0.84255776     0.37419920
     0.62063407     0.85867813     0.37419920
     0.63729178     0.87479850     0.37419920
     0.65394949     0.89091886     0.37419920
     0.67060720     0.90703923     0.37419920
     0.68726491     0.92315959     0.37419920
     0.70392262     0.93927996     0.37419920
     0.72058033     0.95540032     0.37419920
     0.73723804     0.97152069     0.37419920
     0.75389575     0.98764105     0.37419920
     0.00376142     0.22944653     0.37419920
     0.02041913     0.24556690     0.37419920
     0.03707684     0.26168726     0.37419920
     0.05373455     0.27780763     0.37419920
     0.07039226     0.29392800     0.37419920
     0.08704997     0.31004836     0.37419920
     0.10370768     0.32616873     0.37419920
     0.12036539     0.34228909     0.37419920
     0.13702311     0.35840946     0.37419920
     0.15368082     0.37452982     0.37419920
     0.17033853     0.39065019     0.37419920
     0.18699624     0.40677055     0.37419920
     0.20365395     0.42289092     0.37419920
     0.22031166     0.43901128     0.37419920
     0.23696937     0.45513165     0.37419920
     0.25362708     0.47125202     0.37419920
     0.27028479     0.48737238     0.37419920
     0.28694250     0.50349275     0.37419920
     0.30360021     0.51961311     0.37419920
     0.32025793     0.53573348     0.37419920
     0.33691564     0.55185384     0.37419920
     0.35357335     0.56797421     0.37419920
     0.37023106     0.58409457     0.37419920
     0.38688877     0.60021494     0.37419920
     0.40354648     0.61633530     0.37419920
     0.42020419     0.63245567     0.37419920
     0.43686190     0.64857603     0.37419920
     0.45351961     0.66469640     0.37419920
     0.47017732     0.68081677     0.37419920
     0.48683503     0.69693713     0.37419920
     0.50349275     0.71305750     0.37419920
     0.52015046     0.72917786     0.37419920
     0.53680817     0.74529823     0.37419920
     0.55346588     0.76141859     0.37419920
     0.57012359     0.77753896     0.37419920
     0.58678130     0.79365932     0.37419920
     0.60343901     0.80977969     0.37419920
     0.62009672     0.82590005     0.37419920
     0.63675443     0.84202042     0.37419920
     0.65341214     0.85814078     0.37419920
     0.67006985     0.87426115     0.37419920
     0.68672757     0.89038152     0.37419920
     0.70338528     0.90650188     0.37419920
     0.72004299     0.92262225     0.37419920
     0.73670070     0.93874261     0.37419920
     0.75335841     0.95486298     0.37419920
     0.77001612     0.97098334     0.37419920
     0.78667383     0.98710371     0.37419920
     0.00322407     0.19666846     0.37419920
     0.01988178     0.21278882     0.37419920
     0.03653949     0.22890919     0.37419920
     0.05319721     0.24502955     0.37419920
     0.06985492     0.26114992     0.37419920
     0.08651263     0.27727028     0.37419920
     0.10317034     0.29339065     0.37419920
     0.11982805     0.30951102     0.37419920
     0.13648576     0.32563138     0.37419920
     0.15314347     0.34175175     0.37419920
     0.16980118     0.35787211     0.37419920
     0.18645889     0.37399248     0.37419920
     0.20311660     0.39011284     0.37419920
     0.21977431     0.40623321     0.37419920
     0.23643203     0.42235357     0.37419920
     0.25308974     0.43847394     0.37419920
     0.26974745     0.45459430     0.37419920
     0.28640516     0.47071467     0.37419920
     0.30306287     0.48683503     0.37419920
     0.31972058     0.50295540     0.37419920
     0.33637829     0.51907577     0.37419920
     0.35303600     0.53519613     0.37419920
     0.36969371     0.55131650     0.37419920
     0.38635142     0.56743686     0.37419920
     0.40300913     0.58355723     0.37419920
     0.41966685     0.59967759     0.37419920
     0.43632456     0.61579796     0.37419920
     0.45298227     0.63191832     0.37419920
     0.46963998     0.64803869     0.37419920
     0.48629769     0.66415905     0.37419920
     0.50295540     0.68027942     0.37419920
     0.51961311     0.69639979     0.37419920
     0.53627082     0.71252015     0.37419920
     0.55292853     0.72864052     0.37419920
     0.56958624     0.74476088     0.37419920
     0.58624395     0.76088125     0.37419920
     0.60290167     0.77700161     0.37419920
     0.61955938     0.79312198     0.37419920
     0.63621709     0.80924234     0.37419920
     0.65287480     0.82536271     0.37419920
     0.66953251     0.84148307     0.37419920
     0.68619022     0.85760344     0.37419920
     0.70284793     0.87372380     0.37419920
     0.71950564     0.88984417     0.37419920
     0.73616335     0.90596454     0.37419920
     0.75282106     0.92208490     0.37419920
     0.76947877     0.93820527     0.37419920