Generated by Twist2D
    1.0
      75.08254226      78.83666937       0.00000000
     -78.83666937      75.08254226       0.00000000
       0.00000000       0.00000000      25.00000000
    Sn  S
    1682  3364
Direct
     0.02378121     0.97502973     0.37419920
     0.04875149     0.99881094     0.37419920
     0.02259215     0.92627824     0.37419920
     0.04756243     0.95005945     0.37419920
     0.07253270     0.97384067     0.37419920
     0.09750297     0.99762188     0.37419920
     0.02140309     0.87752675     0.37419920
     0.04637337     0.90130797     0.37419920
     0.07134364     0.92508918     0.37419920
     0.09631391     0.94887039     0.37419920
     0.12128419     0.97265161     0.37419920
     0.14625446     0.99643282     0.37419920
     0.02021403     0.82877527     0.37419920
     0.04518430     0.85255648     0.37419920
     0.07015458     0.87633769     0.37419920
     0.09512485     0.90011891     0.37419920
     0.12009512     0.92390012     0.37419920
     0.14506540     0.94768133     0.37419920
     0.17003567     0.97146254     0.37419920
     0.19500595     0.99524376     0.37419920
     0.01902497     0.78002378     0.37419920
     0.04399524     0.80380499     0.37419920
     0.06896552     0.82758621     0.37419920
     0.09393579     0.85136742     0.37419920
     0.11890606     0.87514863     0.37419920
     0.14387634     0.89892985     0.37419920
     0.16884661     0.92271106     0.37419920
     0.19381688     0.94649227     0.37419920
     0.21878716     0.97027348     0.37419920
     0.24375743     0.99405470     0.37419920
     0.01783591     0.73127229     0.37419920
     0.04280618     0.75505351     0.37419920
     0.06777646     0.77883472     0.37419920
     0.09274673     0.80261593     0.37419920
     0.11771700     0.82639715     0.37419920
     0.14268728     0.85017836     0.37419920
     0.16765755     0.87395957     0.37419920
     0.19262782     0.89774078     0.37419920
     0.21759810     0.92152200     0.37419920
     0.24256837     0.94530321     0.37419920
     0.26753864     0.96908442     0.37419920
     0.29250892     0.99286564     0.37419920
     0.01664685     0.68252081     0.37419920
     0.04161712     0.70630202     0.37419920
     0.06658740     0.73008323     0.37419920
     0.09155767     0.75386445     0.37419920
     0.11652794     0.77764566     0.37419920
     0.14149822     0.80142687     0.37419920
     0.16646849     0.82520809     0.37419920
     0.19143876     0.84898930     0.37419920
     0.21640904     0.87277051     0.37419920
     0.24137931     0.89655172     0.37419920
     0.26634958     0.92033294     0.37419920
     0.29131986     0.94411415     0.37419920
     0.31629013     0.96789536     0.37419920
     0.34126040     0.99167658     0.37419920
     0.01545779     0.63376932     0.37419920
     0.04042806     0.65755054     0.37419920
     0.06539834     0.68133175     0.37419920
     0.09036861     0.70511296     0.37419920
     0.11533888     0.72889417     0.37419920
     0.14030916     0.75267539     0.37419920
     0.16527943     0.77645660     0.37419920
     0.19024970     0.80023781     0.37419920
     0.21521998     0.82401902     0.37419920
     0.24019025     0.84780024     0.37419920
     0.26516052     0.87158145     0.37419920
     0.29013080     0.89536266     0.37419920
     0.31510107     0.91914388     0.37419920
     0.34007134     0.94292509     0.37419920
     0.36504162     0.96670630     0.37419920
     0.39001189     0.99048751     0.37419920
     0.01426873     0.58501784     0.37419920
     0.03923900     0.60879905     0.37419920
     0.06420927     0.63258026     0.37419920
     0.08917955     0.65636147     0.37419920
     0.11414982     0.68014269     0.37419920
     0.13912010     0.70392390     0.37419920
     0.16409037     0.72770511     0.37419920
     0.18906064     0.75148633     0.37419920
     0.21403092     0.77526754     0.37419920
     0.23900119     0.79904875     0.37419920
     0.26397146     0.82282996     0.37419920
     0.28894174     0.84661118     0.37419920
     0.31391201     0.87039239     0.37419920
     0.33888228     0.89417360     0.37419920
     0.36385256     0.91795482     0.37419920
     0.38882283     0.94173603     0.37419920
     0.41379310     0.96551724     0.37419920
     0.43876338     0.98929845     0.37419920
     0.01307967     0.53626635     0.37419920
     0.03804994     0.56004756     0.37419920
     0.06302021     0.58382878     0.37419920
     0.08799049     0.60760999     0.37419920
     0.11296076     0.63139120     0.37419920
     0.13793103     0.65517241     0.37419920
     0.16290131     0.67895363     0.37419920
     0.18787158     0.70273484     0.37419920
     0.21284185     0.72651605     0.37419920
     0.23781213     0.75029727     0.37419920
     0.26278240     0.77407848     0.37419920
     0.28775268     0.79785969     0.37419920
     0.31272295     0.82164090     0.37419920
     0.33769322     0.84542212     0.37419920
     0.36266350     0.86920333     0.37419920
     0.38763377     0.89298454     0.37419920
     0.41260404     0.91676576     0.37419920
     0.43757432     0.94054697     0.37419920
     0.46254459     0.96432818     0.37419920
     0.48751486     0.98810939     0.37419920
     0.01189061     0.48751486     0.37419920
     0.03686088     0.51129608     0.37419920
     0.06183115     0.53507729     0.37419920
     0.08680143     0.55885850     0.37419920
     0.11177170     0.58263971     0.37419920
     0.13674197     0.60642093     0.37419920
     0.16171225     0.63020214     0.37419920
     0.18668252     0.65398335     0.37419920
     0.21165279     0.67776457     0.37419920
     0.23662307     0.70154578     0.37419920
     0.26159334     0.72532699     0.37419920
     0.28656361     0.74910820     0.37419920
     0.31153389     0.77288942     0.37419920
     0.33650416     0.79667063     0.37419920
     0.36147444     0.82045184     0.37419920
     0.38644471     0.84423306     0.37419920
     0.41141498     0.86801427     0.37419920
     0.43638526     0.89179548     0.37419920
     0.46135553     0.91557669     0.37419920
     0.48632580     0.93935791     0.37419920
     0.51129608     0.96313912     0.37419920
     0.53626635     0.98692033     0.37419920
     0.01070155     0.43876338     0.37419920
     0.03567182     0.46254459     0.37419920
     0.06064209     0.48632580     0.37419920
     0.08561237     0.51010702     0.37419920
     0.11058264     0.53388823     0.37419920
     0.13555291     0.55766944     0.37419920
     0.16052319     0.58145065     0.37419920
     0.18549346     0.60523187     0.37419920
     0.21046373     0.62901308     0.37419920
     0.23543401     0.65279429     0.37419920
     0.26040428     0.67657551     0.37419920
     0.28537455     0.70035672     0.37419920
     0.31034483     0.72413793     0.37419920
     0.33531510     0.74791914     0.37419920
     0.36028537     0.77170036     0.37419920
     0.38525565     0.79548157     0.37419920
     0.41022592     0.81926278     0.37419920
     0.43519620     0.84304400     0.37419920
     0.46016647     0.86682521     0.37419920
     0.48513674     0.89060642     0.37419920
     0.51010702     0.91438763     0.37419920
     0.53507729     0.93816885     0.37419920
     0.56004756     0.96195006     0.37419920
     0.58501784     0.98573127     0.37419920
     0.00951249     0.39001189     0.37419920
     0.03448276     0.41379310     0.37419920
     0.05945303     0.43757432     0.37419920
     0.08442331     0.46135553     0.37419920
     0.10939358     0.48513674     0.37419920
     0.13436385     0.50891795     0.37419920
     0.15933413     0.53269917     0.37419920
     0.18430440     0.55648038     0.37419920
     0.20927467     0.58026159     0.37419920
     0.23424495     0.60404281     0.37419920
     0.25921522     0.62782402     0.37419920
     0.28418549     0.65160523     0.37419920
     0.30915577     0.67538644     0.37419920
     0.33412604     0.69916766     0.37419920
     0.35909631     0.72294887     0.37419920
     0.38406659     0.74673008     0.37419920
     0.40903686     0.77051130     0.37419920
     0.43400713     0.79429251     0.37419920
     0.45897741     0.81807372     0.37419920
     0.48394768     0.84185493     0.37419920
     0.50891795     0.86563615     0.37419920
     0.53388823     0.88941736     0.37419920
     0.55885850     0.91319857     0.37419920
     0.58382878     0.93697979     0.37419920
     0.60879905     0.96076100     0.37419920
     0.63376932     0.98454221     0.37419920
     0.00832342     0.34126040     0.37419920
     0.03329370     0.36504162     0.37419920
     0.05826397     0.38882283     0.37419920
     0.08323424     0.41260404     0.37419920
     0.10820452     0.43638526     0.37419920
     0.13317479     0.46016647     0.37419920
     0.15814507     0.48394768     0.37419920
     0.18311534     0.50772889     0.37419920
     0.20808561     0.53151011     0.37419920
     0.23305589     0.55529132     0.37419920
     0.25802616     0.57907253     0.37419920
     0.28299643     0.60285375     0.37419920
     0.30796671     0.62663496     0.37419920
     0.33293698     0.65041617     0.37419920
     0.35790725     0.67419738     0.37419920
     0.38287753     0.69797860     0.37419920
     0.40784780     0.72175981     0.37419920
     0.43281807     0.74554102     0.37419920
     0.45778835     0.76932224     0.37419920
     0.48275862     0.79310345     0.37419920
     0.50772889     0.81688466     0.37419920
     0.53269917     0.84066587     0.37419920
     0.55766944     0.86444709     0.37419920
     0.58263971     0.88822830     0.37419920
     0.60760999     0.91200951     0.37419920
     0.63258026     0.93579073     0.37419920
     0.65755054     0.95957194     0.37419920
     0.68252081     0.98335315     0.37419920
     0.00713436     0.29250892     0.37419920
     0.03210464     0.31629013     0.37419920
     0.05707491     0.34007134     0.37419920
     0.08204518     0.36385256     0.37419920
     0.10701546     0.38763377     0.37419920
     0.13198573     0.41141498     0.37419920
     0.15695600     0.43519620     0.37419920
     0.18192628     0.45897741     0.37419920
     0.20689655     0.48275862     0.37419920
     0.23186683     0.50653983     0.37419920
     0.25683710     0.53032105     0.37419920
     0.28180737     0.55410226     0.37419920
     0.30677765     0.57788347     0.37419920
     0.33174792     0.60166468     0.37419920
     0.35671819     0.62544590     0.37419920
     0.38168847     0.64922711     0.37419920
     0.40665874     0.67300832     0.37419920
     0.43162901     0.69678954     0.37419920
     0.45659929     0.72057075     0.37419920
     0.48156956     0.74435196     0.37419920
     0.50653983     0.76813317     0.37419920
     0.53151011     0.79191439     0.37419920
     0.55648038     0.81569560     0.37419920
     0.58145065     0.83947681     0.37419920
     0.60642093     0.86325803     0.37419920
     0.63139120     0.88703924     0.37419920
     0.65636147     0.91082045     0.37419920
     0.68133175     0.93460166     0.37419920
     0.70630202     0.95838288     0.37419920
     0.73127229     0.98216409     0.37419920
     0.00594530     0.24375743     0.37419920
     0.03091558     0.26753864     0.37419920
     0.05588585     0.29131986     0.37419920
     0.08085612     0.31510107     0.37419920
     0.10582640     0.33888228     0.37419920
     0.13079667     0.36266350     0.37419920
     0.15576694     0.38644471     0.37419920
     0.18073722     0.41022592     0.37419920
     0.20570749     0.43400713     0.37419920
     0.23067776     0.45778835     0.37419920
     0.25564804     0.48156956     0.37419920
     0.28061831     0.50535077     0.37419920
     0.30558859     0.52913199     0.37419920
     0.33055886     0.55291320     0.37419920
     0.35552913     0.57669441     0.37419920
     0.38049941     0.60047562     0.37419920
     0.40546968     0.62425684     0.37419920
     0.43043995     0.64803805     0.37419920
     0.45541023     0.67181926     0.37419920
     0.48038050     0.69560048     0.37419920
     0.50535077     0.71938169     0.37419920
     0.53032105     0.74316290     0.37419920
     0.55529132     0.76694411     0.37419920
     0.58026159     0.79072533     0.37419920
     0.60523187     0.81450654     0.37419920
     0.63020214     0.83828775     0.37419920
     0.65517241     0.86206897     0.37419920
     0.68014269     0.88585018     0.37419920
     0.70511296     0.90963139     0.37419920
     0.73008323     0.93341260     0.37419920
     0.75505351     0.95719382     0.37419920
     0.78002378     0.98097503     0.37419920
     0.00475624     0.19500595     0.37419920
     0.02972652     0.21878716     0.37419920
     0.05469679     0.24256837     0.37419920
     0.07966706     0.26634958     0.37419920
     0.10463734     0.29013080     0.37419920
     0.12960761     0.31391201     0.37419920
     0.15457788     0.33769322     0.37419920
     0.17954816     0.36147444     0.37419920
     0.20451843     0.38525565     0.37419920
     0.22948870     0.40903686     0.37419920
     0.25445898     0.43281807     0.37419920
     0.27942925     0.45659929     0.37419920
     0.30439952     0.48038050     0.37419920
     0.32936980     0.50416171     0.37419920
     0.35434007     0.52794293     0.37419920
     0.37931034     0.55172414     0.37419920
     0.40428062     0.57550535     0.37419920
     0.42925089     0.59928656     0.37419920
     0.45422117     0.62306778     0.37419920
     0.47919144     0.64684899     0.37419920
     0.50416171     0.67063020     0.37419920
     0.52913199     0.69441141     0.37419920
     0.55410226     0.71819263     0.37419920
     0.57907253     0.74197384     0.37419920
     0.60404281     0.76575505     0.37419920
     0.62901308     0.78953627     0.37419920
     0.65398335     0.81331748     0.37419920
     0.67895363     0.83709869     0.37419920
     0.70392390     0.86087990     0.37419920
     0.72889417     0.88466112     0.37419920
     0.75386445     0.90844233     0.37419920
     0.77883472     0.93222354     0.37419920
     0.80380499     0.95600476     0.37419920
     0.82877527     0.97978597     0.37419920
     0.00356718     0.14625446     0.37419920
     0.02853746     0.17003567     0.37419920
     0.05350773     0.19381688     0.37419920
     0.07847800     0.21759810     0.37419920
     0.10344828     0.24137931     0.37419920
     0.12841855     0.26516052     0.37419920
     0.15338882     0.28894174     0.37419920
     0.17835910     0.31272295     0.37419920
     0.20332937     0.33650416     0.37419920
     0.22829964     0.36028537     0.37419920
     0.25326992     0.38406659     0.37419920
     0.27824019     0.40784780     0.37419920
     0.30321046     0.43162901     0.37419920
     0.32818074     0.45541023     0.37419920
     0.35315101     0.47919144     0.37419920
     0.37812128     0.50297265     0.37419920
     0.40309156     0.52675386     0.37419920
     0.42806183     0.55053508     0.37419920
     0.45303210     0.57431629     0.37419920
     0.47800238     0.59809750     0.37419920
     0.50297265     0.62187872     0.37419920
     0.52794293     0.64565993     0.37419920
     0.55291320     0.66944114     0.37419920
     0.57788347     0.69322235     0.37419920
     0.60285375     0.71700357     0.37419920
     0.62782402     0.74078478     0.37419920
     0.65279429     0.76456599     0.37419920
     0.67776457     0.78834721     0.37419920
     0.70273484     0.81212842     0.37419920
     0.72770511     0.83590963     0.37419920
     0.75267539     0.85969084     0.37419920
     0.77764566     0.88347206     0.37419920
     0.80261593     0.90725327     0.37419920
     0.82758621     0.93103448     0.37419920
     0.85255648     0.95481570     0.37419920
     0.87752675     0.97859691     0.37419920
     0.00237812     0.09750297     0.37419920
     0.02734839     0.12128419     0.37419920
     0.05231867     0.14506540     0.37419920
     0.07728894     0.16884661     0.37419920
     0.10225922     0.19262782     0.37419920
     0.12722949     0.21640904     0.37419920
     0.15219976     0.24019025     0.37419920
     0.17717004     0.26397146     0.37419920
     0.20214031     0.28775268     0.37419920
     0.22711058     0.31153389     0.37419920
     0.25208086     0.33531510     0.37419920
     0.27705113     0.35909631     0.37419920
     0.30202140     0.38287753     0.37419920
     0.32699168     0.40665874     0.37419920
     0.35196195     0.43043995     0.37419920
     0.37693222     0.45422117     0.37419920
     0.40190250     0.47800238     0.37419920
     0.42687277     0.50178359     0.37419920
     0.45184304     0.52556480     0.37419920
     0.47681332     0.54934602     0.37419920
     0.50178359     0.57312723     0.37419920
     0.52675386     0.59690844     0.37419920
     0.55172414     0.62068966     0.37419920
     0.57669441     0.64447087     0.37419920
     0.60166468     0.66825208     0.37419920
     0.62663496     0.69203329     0.37419920
     0.65160523     0.71581451     0.37419920
     0.67657551     0.73959572     0.37419920
     0.70154578     0.76337693     0.37419920
     0.72651605     0.78715815     0.37419920
     0.75148633     0.81093936     0.37419920
     0.77645660     0.83472057     0.37419920
     0.80142687     0.85850178     0.37419920
     0.82639715     0.88228300     0.37419920
     0.85136742     0.90606421     0.37419920
     0.87633769     0.92984542     0.37419920
     0.90130797     0.95362663     0.37419920
     0.92627824     0.97740785     0.37419920
     0.00118906     0.04875149     0.37419920
     0.02615933     0.07253270     0.37419920
     0.05112961     0.09631391     0.37419920
     0.07609988     0.12009512     0.37419920
     0.10107015     0.14387634     0.37419920
     0.12604043     0.16765755     0.37419920
     0.15101070     0.19143876     0.37419920
     0.17598098     0.21521998     0.37419920
     0.20095125     0.23900119     0.37419920
     0.22592152     0.26278240     0.37419920
     0.25089180     0.28656361     0.37419920
     0.27586207     0.31034483     0.37419920
     0.30083234     0.33412604     0.37419920
     0.32580262     0.35790725     0.37419920
     0.35077289     0.38168847     0.37419920
     0.37574316     0.40546968     0.37419920
     0.40071344     0.42925089     0.37419920
     0.42568371     0.45303210     0.37419920
     0.45065398     0.47681332     0.37419920
     0.47562426     0.50059453     0.37419920
     0.50059453     0.52437574     0.37419920
     0.52556480     0.54815696     0.37419920
     0.55053508     0.57193817     0.37419920
     0.57550535     0.59571938     0.37419920
     0.60047562     0.61950059     0.37419920
     0.62544590     0.64328181     0.37419920
     0.65041617     0.66706302     0.37419920
     0.67538644     0.69084423     0.37419920
     0.70035672     0.71462545     0.37419920
     0.72532699     0.73840666     0.37419920
     0.75029727     0.76218787     0.37419920
     0.77526754     0.78596908     0.37419920
     0.80023781     0.80975030     0.37419920
     0.82520809     0.83353151     0.37419920
     0.85017836     0.85731272     0.37419920
     0.87514863     0.88109394     0.37419920
     0.90011891     0.90487515     0.37419920
     0.92508918     0.92865636     0.37419920
     0.95005945     0.95243757     0.37419920
     0.97502973     0.97621879     0.37419920
     0.00000000     0.00000000     0.37419920
     0.02497027     0.02378121     0.37419920
     0.04994055     0.04756243     0.37419920
     0.07491082     0.07134364     0.37419920
     0.09988109     0.09512485     0.37419920
     0.12485137     0.11890606     0.37419920
     0.14982164     0.14268728     0.37419920
     0.17479191     0.16646849     0.37419920
     0.19976219     0.19024970     0.37419920
     0.22473246     0.21403092     0.37419920
     0.24970273     0.23781213     0.37419920
     0.27467301     0.26159334     0.37419920
     0.29964328     0.28537455     0.37419920
     0.32461356     0.30915577     0.37419920
     0.34958383     0.33293698     0.37419920
     0.37455410     0.35671819     0.37419920
     0.39952438     0.38049941     0.37419920
     0.42449465     0.40428062     0.37419920
     0.44946492     0.42806183     0.37419920
     0.47443520     0.45184304     0.37419920
     0.49940547     0.47562426     0.37419920
     0.52437574     0.49940547     0.37419920
     0.54934602     0.52318668     0.37419920
     0.57431629     0.54696790     0.37419920
     0.59928656     0.57074911     0.37419920
     0.62425684     0.59453032     0.37419920
     0.64922711     0.61831153     0.37419920
     0.67419738     0.64209275     0.37419920
     0.69916766     0.66587396     0.37419920
     0.72413793     0.68965517     0.37419920
     0.74910820     0.71343639     0.37419920
     0.77407848     0.73721760     0.37419920
     0.79904875     0.76099881     0.37419920
     0.82401902     0.78478002     0.37419920
     0.84898930     0.80856124     0.37419920
     0.87395957     0.83234245     0.37419920
     0.89892985     0.85612366     0.37419920
     0.92390012     0.87990488     0.37419920
     0.94887039     0.90368609     0.37419920
     0.97384067     0.92746730     0.37419920
     0.99881094     0.95124851     0.37419920
     0.07372176     0.02259215     0.37419920
     0.09869203     0.04637337     0.37419920
     0.12366231     0.07015458     0.37419920
     0.14863258     0.09393579     0.37419920
     0.17360285     0.11771700     0.37419920
     0.19857313     0.14149822     0.37419920
     0.22354340     0.16527943     0.37419920
     0.24851367     0.18906064     0.37419920
     0.27348395     0.21284185     0.37419920
     0.29845422     0.23662307     0.37419920
     0.32342449     0.26040428     0.37419920
     0.34839477     0.28418549     0.37419920
     0.37336504     0.30796671     0.37419920
     0.39833532     0.33174792     0.37419920
     0.42330559     0.35552913     0.37419920
     0.44827586     0.37931034     0.37419920
     0.47324614     0.40309156     0.37419920
     0.49821641     0.42687277     0.37419920
     0.52318668     0.45065398     0.37419920
     0.54815696     0.47443520     0.37419920
     0.57312723     0.49821641     0.37419920
     0.59809750     0.52199762     0.37419920
     0.62306778     0.54577883     0.37419920
     0.64803805     0.56956005     0.37419920
     0.67300832     0.59334126     0.37419920
     0.69797860     0.61712247     0.37419920
     0.72294887     0.64090369     0.37419920
     0.74791914     0.66468490     0.37419920
     0.77288942     0.68846611     0.37419920
     0.79785969     0.71224732     0.37419920
     0.82282996     0.73602854     0.37419920
     0.84780024     0.75980975     0.37419920
     0.87277051     0.78359096     0.37419920
     0.89774078     0.80737218     0.37419920
     0.92271106     0.83115339     0.37419920
     0.94768133     0.85493460     0.37419920
     0.97265161     0.87871581     0.37419920
     0.99762188     0.90249703     0.37419920
     0.12247325     0.02140309     0.37419920
     0.14744352     0.04518430     0.37419920
     0.17241379     0.06896552     0.37419920
     0.19738407     0.09274673     0.37419920
     0.22235434     0.11652794     0.37419920
     0.24732461     0.14030916     0.37419920
     0.27229489     0.16409037     0.37419920
     0.29726516     0.18787158     0.37419920
     0.32223543     0.21165279     0.37419920
     0.34720571     0.23543401     0.37419920
     0.37217598     0.25921522     0.37419920
     0.39714625     0.28299643     0.37419920
     0.42211653     0.30677765     0.37419920
     0.44708680     0.33055886     0.37419920
     0.47205707     0.35434007     0.37419920
     0.49702735     0.37812128     0.37419920
     0.52199762     0.40190250     0.37419920
     0.54696790     0.42568371     0.37419920
     0.57193817     0.44946492     0.37419920
     0.59690844     0.47324614     0.37419920
     0.62187872     0.49702735     0.37419920
     0.64684899     0.52080856     0.37419920
     0.67181926     0.54458977     0.37419920
     0.69678954     0.56837099     0.37419920
     0.72175981     0.59215220     0.37419920
     0.74673008     0.61593341     0.37419920
     0.77170036     0.63971463     0.37419920
     0.79667063     0.66349584     0.37419920
     0.82164090     0.68727705     0.37419920
     0.84661118     0.71105826     0.37419920
     0.87158145     0.73483948     0.37419920
     0.89655172     0.75862069     0.37419920
     0.92152200     0.78240190     0.37419920
     0.94649227     0.80618312     0.37419920
     0.97146254     0.82996433     0.37419920
     0.99643282     0.85374554     0.37419920
     0.17122473     0.02021403     0.37419920
     0.19619501     0.04399524     0.37419920
     0.22116528     0.06777646     0.37419920
     0.24613555     0.09155767     0.37419920
     0.27110583     0.11533888     0.37419920
     0.29607610     0.13912010     0.37419920
     0.32104637     0.16290131     0.37419920
     0.34601665     0.18668252     0.37419920
     0.37098692     0.21046373     0.37419920
     0.39595719     0.23424495     0.37419920
     0.42092747     0.25802616     0.37419920
     0.44589774     0.28180737     0.37419920
     0.47086801     0.30558859     0.37419920
     0.49583829     0.32936980     0.37419920
     0.52080856     0.35315101     0.37419920
     0.54577883     0.37693222     0.37419920
     0.57074911     0.40071344     0.37419920
     0.59571938     0.42449465     0.37419920
     0.62068966     0.44827586     0.37419920
     0.64565993     0.47205707     0.37419920
     0.67063020     0.49583829     0.37419920
     0.69560048     0.51961950     0.37419920
     0.72057075     0.54340071     0.37419920
     0.74554102     0.56718193     0.37419920
     0.77051130     0.59096314     0.37419920
     0.79548157     0.61474435     0.37419920
     0.82045184     0.63852556     0.37419920
     0.84542212     0.66230678     0.37419920
     0.87039239     0.68608799     0.37419920
     0.89536266     0.70986920     0.37419920
     0.92033294     0.73365042     0.37419920
     0.94530321     0.75743163     0.37419920
     0.97027348     0.78121284     0.37419920
     0.99524376     0.80499405     0.37419920
     0.21997622     0.01902497     0.37419920
     0.24494649     0.04280618     0.37419920
     0.26991677     0.06658740     0.37419920
     0.29488704     0.09036861     0.37419920
     0.31985731     0.11414982     0.37419920
     0.34482759     0.13793103     0.37419920
     0.36979786     0.16171225     0.37419920
     0.39476813     0.18549346     0.37419920
     0.41973841     0.20927467     0.37419920
     0.44470868     0.23305589     0.37419920
     0.46967895     0.25683710     0.37419920
     0.49464923     0.28061831     0.37419920
     0.51961950     0.30439952     0.37419920
     0.54458977     0.32818074     0.37419920
     0.56956005     0.35196195     0.37419920
     0.59453032     0.37574316     0.37419920
     0.61950059     0.39952438     0.37419920
     0.64447087     0.42330559     0.37419920
     0.66944114     0.44708680     0.37419920
     0.69441141     0.47086801     0.37419920
     0.71938169     0.49464923     0.37419920
     0.74435196     0.51843044     0.37419920
     0.76932224     0.54221165     0.37419920
     0.79429251     0.56599287     0.37419920
     0.81926278     0.58977408     0.37419920
     0.84423306     0.61355529     0.37419920
     0.86920333     0.63733650     0.37419920
     0.89417360     0.66111772     0.37419920
     0.91914388     0.68489893     0.37419920
     0.94411415     0.70868014     0.37419920
     0.96908442     0.73246136     0.37419920
     0.99405470     0.75624257     0.37419920
     0.26872771     0.01783591     0.37419920
     0.29369798     0.04161712     0.37419920
     0.31866825     0.06539834     0.37419920
     0.34363853     0.08917955     0.37419920
     0.36860880     0.11296076     0.37419920
     0.39357907     0.13674197     0.37419920
     0.41854935     0.16052319     0.37419920
     0.44351962     0.18430440     0.37419920
     0.46848989     0.20808561     0.37419920
     0.49346017     0.23186683     0.37419920
     0.51843044     0.25564804     0.37419920
     0.54340071     0.27942925     0.37419920
     0.56837099     0.30321046     0.37419920
     0.59334126     0.32699168     0.37419920
     0.61831153     0.35077289     0.37419920
     0.64328181     0.37455410     0.37419920
     0.66825208     0.39833532     0.37419920
     0.69322235     0.42211653     0.37419920
     0.71819263     0.44589774     0.37419920
     0.74316290     0.46967895     0.37419920
     0.76813317     0.49346017     0.37419920
     0.79310345     0.51724138     0.37419920
     0.81807372     0.54102259     0.37419920
     0.84304400     0.56480380     0.37419920
     0.86801427     0.58858502     0.37419920
     0.89298454     0.61236623     0.37419920
     0.91795482     0.63614744     0.37419920
     0.94292509     0.65992866     0.37419920
     0.96789536     0.68370987     0.37419920
     0.99286564     0.70749108     0.37419920
     0.31747919     0.01664685     0.37419920
     0.34244946     0.04042806     0.37419920
     0.36741974     0.06420927     0.37419920
     0.39239001     0.08799049     0.37419920
     0.41736029     0.11177170     0.37419920
     0.44233056     0.13555291     0.37419920
     0.46730083     0.15933413     0.37419920
     0.49227111     0.18311534     0.37419920
     0.51724138     0.20689655     0.37419920
     0.54221165     0.23067776     0.37419920
     0.56718193     0.25445898     0.37419920
     0.59215220     0.27824019     0.37419920
     0.61712247     0.30202140     0.37419920
     0.64209275     0.32580262     0.37419920
     0.66706302     0.34958383     0.37419920
     0.69203329     0.37336504     0.37419920