Generated by Twist2D
    1.0
     161.55298211       0.00000000       0.00000000
       0.00000000     110.76215822       0.00000000
       0.00000000       0.00000000      20.00000000
    P
    9804
Direct
     0.01020408     0.02327706     0.42564718
     0.01020408     0.06327706     0.42564718
     0.01020408     0.10327706     0.42564718
     0.01020408     0.14327706     0.42564718
     0.01020408     0.18327706     0.42564718
     0.01020408     0.22327706     0.42564718
     0.01020408     0.26327706     0.42564718
     0.01020408     0.30327706     0.42564718
     0.01020408     0.34327706     0.42564718
     0.01020408     0.38327706     0.42564718
     0.01020408     0.42327706     0.42564718
     0.01020408     0.46327706     0.42564718
     0.01020408     0.50327706     0.42564718
     0.01020408     0.54327706     0.42564718
     0.01020408     0.58327706     0.42564718
     0.01020408     0.62327706     0.42564718
     0.01020408     0.66327706     0.42564718
     0.01020408     0.70327706     0.42564718
     0.01020408     0.74327706     0.42564718
     0.01020408     0.78327706     0.42564718
     0.01020408     0.82327706     0.42564718
     0.01020408     0.86327706     0.42564718
     0.01020408     0.90327706     0.42564718
     0.01020408     0.94327706     0.42564718
     0.01020408     0.98327706     0.42564718
     0.03061224     0.02327706     0.42564718
     0.03061224     0.06327706     0.42564718
     0.03061224     0.10327706     0.42564718
     0.03061224     0.14327706     0.42564718
     0.03061224     0.18327706     0.42564718
     0.03061224     0.22327706     0.42564718
     0.03061224     0.26327706     0.42564718
     0.03061224     0.30327706     0.42564718
     0.03061224     0.34327706     0.42564718
     0.03061224     0.38327706     0.42564718
     0.03061224     0.42327706     0.42564718
     0.03061224     0.46327706     0.42564718
     0.03061224     0.50327706     0.42564718
     0.03061224     0.54327706     0.42564718
     0.03061224     0.58327706     0.42564718
     0.03061224     0.62327706     0.42564718
     0.03061224     0.66327706     0.42564718
     0.03061224     0.70327706     0.42564718
     0.03061224     0.74327706     0.42564718
     0.03061224     0.78327706     0.42564718
     0.03061224     0.82327706     0.42564718
     0.03061224     0.86327706     0.42564718
     0.03061224     0.90327706     0.42564718
     0.03061224     0.94327706     0.42564718
     0.03061224     0.98327706     0.42564718
     0.05102041     0.02327706     0.42564718
     0.05102041     0.06327706     0.42564718
     0.05102041     0.10327706     0.42564718
     0.05102041     0.14327706     0.42564718
     0.05102041     0.18327706     0.42564718
     0.05102041     0.22327706     0.42564718
     0.05102041     0.26327706     0.42564718
     0.05102041     0.30327706     0.42564718
     0.05102041     0.34327706     0.42564718
     0.05102041     0.38327706     0.42564718
     0.05102041     0.42327706     0.42564718
     0.05102041     0.46327706     0.42564718
     0.05102041     0.50327706     0.42564718
     0.05102041     0.54327706     0.42564718
     0.05102041     0.58327706     0.42564718
     0.05102041     0.62327706     0.42564718
     0.05102041     0.66327706     0.42564718
     0.05102041     0.70327706     0.42564718
     0.05102041     0.74327706     0.42564718
     0.05102041     0.78327706     0.42564718
     0.05102041     0.82327706     0.42564718
     0.05102041     0.86327706     0.42564718
     0.05102041     0.90327706     0.42564718
     0.05102041     0.94327706     0.42564718
     0.05102041     0.98327706     0.42564718
     0.07142857     0.02327706     0.42564718
     0.07142857     0.06327706     0.42564718
     0.07142857     0.10327706     0.42564718
     0.07142857     0.14327706     0.42564718
     0.07142857     0.18327706     0.42564718
     0.07142857     0.22327706     0.42564718
     0.07142857     0.26327706     0.42564718
     0.07142857     0.30327706     0.42564718
     0.07142857     0.34327706     0.42564718
     0.07142857     0.38327706     0.42564718
     0.07142857     0.42327706     0.42564718
     0.07142857     0.46327706     0.42564718
     0.07142857     0.50327706     0.42564718
     0.07142857     0.54327706     0.42564718
     0.07142857     0.58327706     0.42564718
     0.07142857     0.62327706     0.42564718
     0.07142857     0.66327706     0.42564718
     0.07142857     0.70327706     0.42564718
     0.07142857     0.74327706     0.42564718
     0.07142857     0.78327706     0.42564718
     0.07142857     0.82327706     0.42564718
     0.07142857     0.86327706     0.42564718
     0.07142857     0.90327706     0.42564718
     0.07142857     0.94327706     0.42564718
     0.07142857     0.98327706     0.42564718
     0.09183673     0.02327706     0.42564718
     0.09183673     0.06327706     0.42564718
     0.09183673     0.10327706     0.42564718
     0.09183673     0.14327706     0.42564718
     0.09183673     0.18327706     0.42564718
     0.09183673     0.22327706     0.42564718
     0.09183673     0.26327706     0.42564718
     0.09183673     0.30327706     0.42564718
     0.09183673     0.34327706     0.42564718
     0.09183673     0.38327706     0.42564718
     0.09183673     0.42327706     0.42564718
     0.09183673     0.46327706     0.42564718
     0.09183673     0.50327706     0.42564718
     0.09183673     0.54327706     0.42564718
     0.09183673     0.58327706     0.42564718
     0.09183673     0.62327706     0.42564718
     0.09183673     0.66327706     0.42564718
     0.09183673     0.70327706     0.42564718
     0.09183673     0.74327706     0.42564718
     0.09183673     0.78327706     0.42564718
     0.09183673     0.82327706     0.42564718
     0.09183673     0.86327706     0.42564718
     0.09183673     0.90327706     0.42564718
     0.09183673     0.94327706     0.42564718
     0.09183673     0.98327706     0.42564718
     0.11224490     0.02327706     0.42564718
     0.11224490     0.06327706     0.42564718
     0.11224490     0.10327706     0.42564718
     0.11224490     0.14327706     0.42564718
     0.11224490     0.18327706     0.42564718
     0.11224490     0.22327706     0.42564718
     0.11224490     0.26327706     0.42564718
     0.11224490     0.30327706     0.42564718
     0.11224490     0.34327706     0.42564718
     0.11224490     0.38327706     0.42564718
     0.11224490     0.42327706     0.42564718
     0.11224490     0.46327706     0.42564718
     0.11224490     0.50327706     0.42564718
     0.11224490     0.54327706     0.42564718
     0.11224490     0.58327706     0.42564718
     0.11224490     0.62327706     0.42564718
     0.11224490     0.66327706     0.42564718
     0.11224490     0.70327706     0.42564718
     0.11224490     0.74327706     0.42564718
     0.11224490     0.78327706     0.42564718
     0.11224490     0.82327706     0.42564718
     0.11224490     0.86327706     0.42564718
     0.11224490     0.90327706     0.42564718
     0.11224490     0.94327706     0.42564718
     0.11224490     0.98327706     0.42564718
     0.13265306     0.02327706     0.42564718
     0.13265306     0.06327706     0.42564718
     0.13265306     0.10327706     0.42564718
     0.13265306     0.14327706     0.42564718
     0.13265306     0.18327706     0.42564718
     0.13265306     0.22327706     0.42564718
     0.13265306     0.26327706     0.42564718
     0.13265306     0.30327706     0.42564718
     0.13265306     0.34327706     0.42564718
     0.13265306     0.38327706     0.42564718
     0.13265306     0.42327706     0.42564718
     0.13265306     0.46327706     0.42564718
     0.13265306     0.50327706     0.42564718
     0.13265306     0.54327706     0.42564718
     0.13265306     0.58327706     0.42564718
     0.13265306     0.62327706     0.42564718
     0.13265306     0.66327706     0.42564718
     0.13265306     0.70327706     0.42564718
     0.13265306     0.74327706     0.42564718
     0.13265306     0.78327706     0.42564718
     0.13265306     0.82327706     0.42564718
     0.13265306     0.86327706     0.42564718
     0.13265306     0.90327706     0.42564718
     0.13265306     0.94327706     0.42564718
     0.13265306     0.98327706     0.42564718
     0.15306122     0.02327706     0.42564718
     0.15306122     0.06327706     0.42564718
     0.15306122     0.10327706     0.42564718
     0.15306122     0.14327706     0.42564718
     0.15306122     0.18327706     0.42564718
     0.15306122     0.22327706     0.42564718
     0.15306122     0.26327706     0.42564718
     0.15306122     0.30327706     0.42564718
     0.15306122     0.34327706     0.42564718
     0.15306122     0.38327706     0.42564718
     0.15306122     0.42327706     0.42564718
     0.15306122     0.46327706     0.42564718
     0.15306122     0.50327706     0.42564718
     0.15306122     0.54327706     0.42564718
     0.15306122     0.58327706     0.42564718
     0.15306122     0.62327706     0.42564718
     0.15306122     0.66327706     0.42564718
     0.15306122     0.70327706     0.42564718
     0.15306122     0.74327706     0.42564718
     0.15306122     0.78327706     0.42564718
     0.15306122     0.82327706     0.42564718
     0.15306122     0.86327706     0.42564718
     0.15306122     0.90327706     0.42564718
     0.15306122     0.94327706     0.42564718
     0.15306122     0.98327706     0.42564718
     0.17346939     0.02327706     0.42564718
     0.17346939     0.06327706     0.42564718
     0.17346939     0.10327706     0.42564718
     0.17346939     0.14327706     0.42564718
     0.17346939     0.18327706     0.42564718
     0.17346939     0.22327706     0.42564718
     0.17346939     0.26327706     0.42564718
     0.17346939     0.30327706     0.42564718
     0.17346939     0.34327706     0.42564718
     0.17346939     0.38327706     0.42564718
     0.17346939     0.42327706     0.42564718
     0.17346939     0.46327706     0.42564718
     0.17346939     0.50327706     0.42564718
     0.17346939     0.54327706     0.42564718
     0.17346939     0.58327706     0.42564718
     0.17346939     0.62327706     0.42564718
     0.17346939     0.66327706     0.42564718
     0.17346939     0.70327706     0.42564718
     0.17346939     0.74327706     0.42564718
     0.17346939     0.78327706     0.42564718
     0.17346939     0.82327706     0.42564718
     0.17346939     0.86327706     0.42564718
     0.17346939     0.90327706     0.42564718
     0.17346939     0.94327706     0.42564718
     0.17346939     0.98327706     0.42564718
     0.19387755     0.02327706     0.42564718
     0.19387755     0.06327706     0.42564718
     0.19387755     0.10327706     0.42564718
     0.19387755     0.14327706     0.42564718
     0.19387755     0.18327706     0.42564718
     0.19387755     0.22327706     0.42564718
     0.19387755     0.26327706     0.42564718
     0.19387755     0.30327706     0.42564718
     0.19387755     0.34327706     0.42564718
     0.19387755     0.38327706     0.42564718
     0.19387755     0.42327706     0.42564718
     0.19387755     0.46327706     0.42564718
     0.19387755     0.50327706     0.42564718
     0.19387755     0.54327706     0.42564718
     0.19387755     0.58327706     0.42564718
     0.19387755     0.62327706     0.42564718
     0.19387755     0.66327706     0.42564718
     0.19387755     0.70327706     0.42564718
     0.19387755     0.74327706     0.42564718
     0.19387755     0.78327706     0.42564718
     0.19387755     0.82327706     0.42564718
     0.19387755     0.86327706     0.42564718
     0.19387755     0.90327706     0.42564718
     0.19387755     0.94327706     0.42564718
     0.19387755     0.98327706     0.42564718
     0.21428571     0.02327706     0.42564718
     0.21428571     0.06327706     0.42564718
     0.21428571     0.10327706     0.42564718
     0.21428571     0.14327706     0.42564718
     0.21428571     0.18327706     0.42564718
     0.21428571     0.22327706     0.42564718
     0.21428571     0.26327706     0.42564718
     0.21428571     0.30327706     0.42564718
     0.21428571     0.34327706     0.42564718
     0.21428571     0.38327706     0.42564718
     0.21428571     0.42327706     0.42564718
     0.21428571     0.46327706     0.42564718
     0.21428571     0.50327706     0.42564718
     0.21428571     0.54327706     0.42564718
     0.21428571     0.58327706     0.42564718
     0.21428571     0.62327706     0.42564718
     0.21428571     0.66327706     0.42564718
     0.21428571     0.70327706     0.42564718
     0.21428571     0.74327706     0.42564718
     0.21428571     0.78327706     0.42564718
     0.21428571     0.82327706     0.42564718
     0.21428571     0.86327706     0.42564718
     0.21428571     0.90327706     0.42564718
     0.21428571     0.94327706     0.42564718
     0.21428571     0.98327706     0.42564718
     0.23469388     0.02327706     0.42564718
     0.23469388     0.06327706     0.42564718
     0.23469388     0.10327706     0.42564718
     0.23469388     0.14327706     0.42564718
     0.23469388     0.18327706     0.42564718
     0.23469388     0.22327706     0.42564718
     0.23469388     0.26327706     0.42564718
     0.23469388     0.30327706     0.42564718
     0.23469388     0.34327706     0.42564718
     0.23469388     0.38327706     0.42564718
     0.23469388     0.42327706     0.42564718
     0.23469388     0.46327706     0.42564718
     0.23469388     0.50327706     0.42564718
     0.23469388     0.54327706     0.42564718
     0.23469388     0.58327706     0.42564718
     0.23469388     0.62327706     0.42564718
     0.23469388     0.66327706     0.42564718
     0.23469388     0.70327706     0.42564718
     0.23469388     0.74327706     0.42564718
     0.23469388     0.78327706     0.42564718
     0.23469388     0.82327706     0.42564718
     0.23469388     0.86327706     0.42564718
     0.23469388     0.90327706     0.42564718
     0.23469388     0.94327706     0.42564718
     0.23469388     0.98327706     0.42564718
     0.25510204     0.02327706     0.42564718
     0.25510204     0.06327706     0.42564718
     0.25510204     0.10327706     0.42564718
     0.25510204     0.14327706     0.42564718
     0.25510204     0.18327706     0.42564718
     0.25510204     0.22327706     0.42564718
     0.25510204     0.26327706     0.42564718
     0.25510204     0.30327706     0.42564718
     0.25510204     0.34327706     0.42564718
     0.25510204     0.38327706     0.42564718
     0.25510204     0.42327706     0.42564718
     0.25510204     0.46327706     0.42564718
     0.25510204     0.50327706     0.42564718
     0.25510204     0.54327706     0.42564718
     0.25510204     0.58327706     0.42564718
     0.25510204     0.62327706     0.42564718
     0.25510204     0.66327706     0.42564718
     0.25510204     0.70327706     0.42564718
     0.25510204     0.74327706     0.42564718
     0.25510204     0.78327706     0.42564718
     0.25510204     0.82327706     0.42564718
     0.25510204     0.86327706     0.42564718
     0.25510204     0.90327706     0.42564718
     0.25510204     0.94327706     0.42564718
     0.25510204     0.98327706     0.42564718
     0.27551020     0.02327706     0.42564718
     0.27551020     0.06327706     0.42564718
     0.27551020     0.10327706     0.42564718
     0.27551020     0.14327706     0.42564718
     0.27551020     0.18327706     0.42564718
     0.27551020     0.22327706     0.42564718
     0.27551020     0.26327706     0.42564718
     0.27551020     0.30327706     0.42564718
     0.27551020     0.34327706     0.42564718
     0.27551020     0.38327706     0.42564718
     0.27551020     0.42327706     0.42564718
     0.27551020     0.46327706     0.42564718
     0.27551020     0.50327706     0.42564718
     0.27551020     0.54327706     0.42564718
     0.27551020     0.58327706     0.42564718
     0.27551020     0.62327706     0.42564718
     0.27551020     0.66327706     0.42564718
     0.27551020     0.70327706     0.42564718
     0.27551020     0.74327706     0.42564718
     0.27551020     0.78327706     0.42564718
     0.27551020     0.82327706     0.42564718
     0.27551020     0.86327706     0.42564718
     0.27551020     0.90327706     0.42564718
     0.27551020     0.94327706     0.42564718
     0.27551020     0.98327706     0.42564718
     0.29591837     0.02327706     0.42564718
     0.29591837     0.06327706     0.42564718
     0.29591837     0.10327706     0.42564718
     0.29591837     0.14327706     0.42564718
     0.29591837     0.18327706     0.42564718
     0.29591837     0.22327706     0.42564718
     0.29591837     0.26327706     0.42564718
     0.29591837     0.30327706     0.42564718
     0.29591837     0.34327706     0.42564718
     0.29591837     0.38327706     0.42564718
     0.29591837     0.42327706     0.42564718
     0.29591837     0.46327706     0.42564718
     0.29591837     0.50327706     0.42564718
     0.29591837     0.54327706     0.42564718
     0.29591837     0.58327706     0.42564718
     0.29591837     0.62327706     0.42564718
     0.29591837     0.66327706     0.42564718
     0.29591837     0.70327706     0.42564718
     0.29591837     0.74327706     0.42564718
     0.29591837     0.78327706     0.42564718
     0.29591837     0.82327706     0.42564718
     0.29591837     0.86327706     0.42564718
     0.29591837     0.90327706     0.42564718
     0.29591837     0.94327706     0.42564718
     0.29591837     0.98327706     0.42564718
     0.31632653     0.02327706     0.42564718
     0.31632653     0.06327706     0.42564718
     0.31632653     0.10327706     0.42564718
     0.31632653     0.14327706     0.42564718
     0.31632653     0.18327706     0.42564718
     0.31632653     0.22327706     0.42564718
     0.31632653     0.26327706     0.42564718
     0.31632653     0.30327706     0.42564718
     0.31632653     0.34327706     0.42564718
     0.31632653     0.38327706     0.42564718
     0.31632653     0.42327706     0.42564718
     0.31632653     0.46327706     0.42564718
     0.31632653     0.50327706     0.42564718
     0.31632653     0.54327706     0.42564718
     0.31632653     0.58327706     0.42564718
     0.31632653     0.62327706     0.42564718
     0.31632653     0.66327706     0.42564718
     0.31632653     0.70327706     0.42564718
     0.31632653     0.74327706     0.42564718
     0.31632653     0.78327706     0.42564718
     0.31632653     0.82327706     0.42564718
     0.31632653     0.86327706     0.42564718
     0.31632653     0.90327706     0.42564718
     0.31632653     0.94327706     0.42564718
     0.31632653     0.98327706     0.42564718
     0.33673469     0.02327706     0.42564718
     0.33673469     0.06327706     0.42564718
     0.33673469     0.10327706     0.42564718
     0.33673469     0.14327706     0.42564718
     0.33673469     0.18327706     0.42564718
     0.33673469     0.22327706     0.42564718
     0.33673469     0.26327706     0.42564718
     0.33673469     0.30327706     0.42564718
     0.33673469     0.34327706     0.42564718
     0.33673469     0.38327706     0.42564718
     0.33673469     0.42327706     0.42564718
     0.33673469     0.46327706     0.42564718
     0.33673469     0.50327706     0.42564718
     0.33673469     0.54327706     0.42564718
     0.33673469     0.58327706     0.42564718
     0.33673469     0.62327706     0.42564718
     0.33673469     0.66327706     0.42564718
     0.33673469     0.70327706     0.42564718
     0.33673469     0.74327706     0.42564718
     0.33673469     0.78327706     0.42564718
     0.33673469     0.82327706     0.42564718
     0.33673469     0.86327706     0.42564718
     0.33673469     0.90327706     0.42564718
     0.33673469     0.94327706     0.42564718
     0.33673469     0.98327706     0.42564718
     0.35714286     0.02327706     0.42564718
     0.35714286     0.06327706     0.42564718
     0.35714286     0.10327706     0.42564718
     0.35714286     0.14327706     0.42564718
     0.35714286     0.18327706     0.42564718
     0.35714286     0.22327706     0.42564718
     0.35714286     0.26327706     0.42564718
     0.35714286     0.30327706     0.42564718
     0.35714286     0.34327706     0.42564718
     0.35714286     0.38327706     0.42564718
     0.35714286     0.42327706     0.42564718
     0.35714286     0.46327706     0.42564718
     0.35714286     0.50327706     0.42564718
     0.35714286     0.54327706     0.42564718
     0.35714286     0.58327706     0.42564718
     0.35714286     0.62327706     0.42564718
     0.35714286     0.66327706     0.42564718
     0.35714286     0.70327706     0.42564718
     0.35714286     0.74327706     0.42564718
     0.35714286     0.78327706     0.42564718
     0.35714286     0.82327706     0.42564718
     0.35714286     0.86327706     0.42564718
     0.35714286     0.90327706     0.42564718
     0.35714286     0.94327706     0.42564718
     0.35714286     0.98327706     0.42564718
     0.37755102     0.02327706     0.42564718
     0.37755102     0.06327706     0.42564718
     0.37755102     0.10327706     0.42564718
     0.37755102     0.14327706     0.42564718
     0.37755102     0.18327706     0.42564718
     0.37755102     0.22327706     0.42564718
     0.37755102     0.26327706     0.42564718
     0.37755102     0.30327706     0.42564718
     0.37755102     0.34327706     0.42564718
     0.37755102     0.38327706     0.42564718
     0.37755102     0.42327706     0.42564718
     0.37755102     0.46327706     0.42564718
     0.37755102     0.50327706     0.42564718
     0.37755102     0.54327706     0.42564718
     0.37755102     0.58327706     0.42564718
     0.37755102     0.62327706     0.42564718
     0.37755102     0.66327706     0.42564718
     0.37755102     0.70327706     0.42564718
     0.37755102     0.74327706     0.42564718
     0.37755102     0.78327706     0.42564718
     0.37755102     0.82327706     0.42564718
     0.37755102     0.86327706     0.42564718
     0.37755102     0.90327706     0.42564718
     0.37755102     0.94327706     0.42564718
     0.37755102     0.98327706     0.42564718
     0.39795918     0.02327706     0.42564718
     0.39795918     0.06327706     0.42564718
     0.39795918     0.10327706     0.42564718
     0.39795918     0.14327706     0.42564718
     0.39795918     0.18327706     0.42564718
     0.39795918     0.22327706     0.42564718
     0.39795918     0.26327706     0.42564718
     0.39795918     0.30327706     0.42564718
     0.39795918     0.34327706     0.42564718
     0.39795918     0.38327706     0.42564718
     0.39795918     0.42327706     0.42564718
     0.39795918     0.46327706     0.42564718
     0.39795918     0.50327706     0.42564718
     0.39795918     0.54327706     0.42564718
     0.39795918     0.58327706     0.42564718
     0.39795918     0.62327706     0.42564718
     0.39795918     0.66327706     0.42564718
     0.39795918     0.70327706     0.42564718
     0.39795918     0.74327706     0.42564718
     0.39795918     0.78327706     0.42564718
     0.39795918     0.82327706     0.42564718
     0.39795918     0.86327706     0.42564718
     0.39795918     0.90327706     0.42564718
     0.39795918     0.94327706     0.42564718
     0.39795918     0.98327706     0.42564718
     0.41836735     0.02327706     0.42564718
     0.41836735     0.06327706     0.42564718
     0.41836735     0.10327706     0.42564718
     0.41836735     0.14327706     0.42564718
     0.41836735     0.18327706     0.42564718
     0.41836735     0.22327706     0.42564718
     0.41836735     0.26327706     0.42564718
     0.41836735     0.30327706     0.42564718
     0.41836735     0.34327706     0.42564718
     0.41836735     0.38327706     0.42564718
     0.41836735     0.42327706     0.42564718
     0.41836735     0.46327706     0.42564718
     0.41836735     0.50327706     0.42564718
     0.41836735     0.54327706     0.42564718
     0.41836735     0.58327706     0.42564718
     0.41836735     0.62327706     0.42564718
     0.41836735     0.66327706     0.42564718
     0.41836735     0.70327706     0.42564718
     0.41836735     0.74327706     0.42564718
     0.41836735     0.78327706     0.42564718
     0.41836735     0.82327706     0.42564718
     0.41836735     0.86327706     0.42564718
     0.41836735     0.90327706     0.42564718
     0.41836735     0.94327706     0.42564718
     0.41836735     0.98327706     0.42564718
     0.43877551     0.02327706     0.42564718
     0.43877551     0.06327706     0.42564718
     0.43877551     0.10327706     0.42564718
     0.43877551     0.14327706     0.42564718
     0.43877551     0.18327706     0.42564718
     0.43877551     0.22327706     0.42564718
     0.43877551     0.26327706     0.42564718
     0.43877551     0.30327706     0.42564718
     0.43877551     0.34327706     0.42564718
     0.43877551     0.38327706     0.42564718
     0.43877551     0.42327706     0.42564718
     0.43877551     0.46327706     0.42564718
     0.43877551     0.50327706     0.42564718
     0.43877551     0.54327706     0.42564718
     0.43877551     0.58327706     0.42564718
     0.43877551     0.62327706     0.42564718
     0.43877551     0.66327706     0.42564718
     0.43877551     0.70327706     0.42564718
     0.43877551     0.74327706     0.42564718
     0.43877551     0.78327706     0.42564718
     0.43877551     0.82327706     0.42564718
     0.43877551     0.86327706     0.42564718
     0.43877551     0.90327706     0.42564718
     0.43877551     0.94327706     0.42564718
     0.43877551     0.98327706     0.42564718
     0.45918367     0.02327706     0.42564718
     0.45918367     0.06327706     0.42564718
     0.45918367     0.10327706     0.42564718
     0.45918367     0.14327706     0.42564718
     0.45918367     0.18327706     0.42564718
     0.45918367     0.22327706     0.42564718
     0.45918367     0.26327706     0.42564718
     0.45918367     0.30327706     0.42564718
     0.45918367     0.34327706     0.42564718
     0.45918367     0.38327706     0.42564718
     0.45918367     0.42327706     0.42564718
     0.45918367     0.46327706     0.42564718
     0.45918367     0.50327706     0.42564718
     0.45918367     0.54327706     0.42564718
     0.45918367     0.58327706     0.42564718
     0.45918367     0.62327706     0.42564718
     0.45918367     0.66327706     0.42564718
     0.45918367     0.70327706     0.42564718
     0.45918367     0.74327706     0.42564718
     0.45918367     0.78327706     0.42564718
     0.45918367     0.82327706     0.42564718
     0.45918367     0.86327706     0.42564718
     0.45918367     0.90327706     0.42564718
     0.45918367     0.94327706     0.42564718
     0.45918367     0.98327706     0.42564718
     0.47959184     0.02327706     0.42564718
     0.47959184     0.06327706     0.42564718
     0.47959184     0.10327706     0.42564718
     0.47959184     0.14327706     0.42564718
     0.47959184     0.18327706     0.42564718
     0.47959184     0.22327706     0.42564718
     0.47959184     0.26327706     0.42564718
     0.47959184     0.30327706     0.42564718
     0.47959184     0.34327706     0.42564718
     0.47959184     0.38327706     0.42564718
     0.47959184     0.42327706     0.42564718
     0.47959184     0.46327706     0.42564718
     0.47959184     0.50327706     0.42564718
     0.47959184     0.54327706     0.42564718
     0.47959184     0.58327706     0.42564718
     0.47959184     0.62327706     0.42564718
     0.47959184     0.66327706     0.42564718
     0.47959184     0.70327706     0.42564718
     0.47959184     0.74327706     0.42564718
     0.47959184     0.78327706     0.42564718
     0.47959184     0.82327706     0.42564718
     0.47959184     0.86327706     0.42564718
     0.47959184     0.90327706     0.42564718
     0.47959184     0.94327706     0.42564718
     0.47959184     0.98327706     0.42564718
     0.50000000     0.02327706     0.42564718
     0.50000000     0.06327706     0.42564718
     0.50000000     0.10327706     0.42564718
     0.50000000     0.14327706     0.42564718
     0.50000000     0.18327706     0.42564718
     0.50000000     0.22327706     0.42564718
     0.50000000     0.26327706     0.42564718
     0.50000000     0.30327706     0.42564718
     0.50000000     0.34327706     0.42564718
     0.50000000     0.38327706     0.42564718
     0.50000000     0.42327706     0.42564718
     0.50000000     0.46327706     0.42564718
     0.50000000     0.50327706     0.42564718
     0.50000000     0.54327706     0.42564718
     0.50000000     0.58327706     0.42564718
     0.50000000     0.62327706     0.42564718
     0.50000000     0.66327706     0.42564718
     0.50000000     0.70327706     0.42564718
     0.50000000     0.74327706     0.42564718
     0.50000000     0.78327706     0.42564718
     0.50000000     0.82327706     0.42564718
     0.50000000     0.86327706     0.42564718
     0.50000000     0.90327706     0.42564718
     0.50000000     0.94327706     0.42564718
     0.50000000     0.98327706     0.42564718
     0.52040816     0.02327706     0.42564718
     0.52040816     0.06327706     0.42564718
     0.52040816     0.10327706     0.42564718
     0.52040816     0.14327706     0.42564718
     0.52040816     0.18327706     0.42564718
     0.52040816     0.22327706     0.42564718
     0.52040816     0.26327706     0.42564718
     0.52040816     0.30327706     0.42564718
     0.52040816     0.34327706     0.42564718
     0.52040816     0.38327706     0.42564718
     0.52040816     0.42327706     0.42564718
     0.52040816     0.46327706     0.42564718
     0.52040816     0.50327706     0.42564718
     0.52040816     0.54327706     0.42564718
     0.52040816     0.58327706     0.42564718
     0.52040816     0.62327706     0.42564718
     0.52040816     0.66327706     0.42564718
     0.52040816     0.70327706     0.42564718
     0.52040816     0.74327706     0.42564718
     0.52040816     0.78327706     0.42564718
     0.52040816     0.82327706     0.42564718
     0.52040816     0.86327706     0.42564718