Generated by Twist2D
    1.0
     151.66198321       0.00000000       0.00000000
       0.00000000     106.33167189       0.00000000
       0.00000000       0.00000000      20.00000000
    P
    8836
Direct
     0.01086957     0.02424694     0.42564718
     0.01086957     0.06591361     0.42564718
     0.01086957     0.10758027     0.42564718
     0.01086957     0.14924694     0.42564718
     0.01086957     0.19091361     0.42564718
     0.01086957     0.23258027     0.42564718
     0.01086957     0.27424694     0.42564718
     0.01086957     0.31591361     0.42564718
     0.01086957     0.35758027     0.42564718
     0.01086957     0.39924694     0.42564718
     0.01086957     0.44091361     0.42564718
     0.01086957     0.48258027     0.42564718
     0.01086957     0.52424694     0.42564718
     0.01086957     0.56591361     0.42564718
     0.01086957     0.60758027     0.42564718
     0.01086957     0.64924694     0.42564718
     0.01086957     0.69091361     0.42564718
     0.01086957     0.73258027     0.42564718
     0.01086957     0.77424694     0.42564718
     0.01086957     0.81591361     0.42564718
     0.01086957     0.85758027     0.42564718
     0.01086957     0.89924694     0.42564718
     0.01086957     0.94091361     0.42564718
     0.01086957     0.98258027     0.42564718
     0.03260870     0.02424694     0.42564718
     0.03260870     0.06591361     0.42564718
     0.03260870     0.10758027     0.42564718
     0.03260870     0.14924694     0.42564718
     0.03260870     0.19091361     0.42564718
     0.03260870     0.23258027     0.42564718
     0.03260870     0.27424694     0.42564718
     0.03260870     0.31591361     0.42564718
     0.03260870     0.35758027     0.42564718
     0.03260870     0.39924694     0.42564718
     0.03260870     0.44091361     0.42564718
     0.03260870     0.48258027     0.42564718
     0.03260870     0.52424694     0.42564718
     0.03260870     0.56591361     0.42564718
     0.03260870     0.60758027     0.42564718
     0.03260870     0.64924694     0.42564718
     0.03260870     0.69091361     0.42564718
     0.03260870     0.73258027     0.42564718
     0.03260870     0.77424694     0.42564718
     0.03260870     0.81591361     0.42564718
     0.03260870     0.85758027     0.42564718
     0.03260870     0.89924694     0.42564718
     0.03260870     0.94091361     0.42564718
     0.03260870     0.98258027     0.42564718
     0.05434783     0.02424694     0.42564718
     0.05434783     0.06591361     0.42564718
     0.05434783     0.10758027     0.42564718
     0.05434783     0.14924694     0.42564718
     0.05434783     0.19091361     0.42564718
     0.05434783     0.23258027     0.42564718
     0.05434783     0.27424694     0.42564718
     0.05434783     0.31591361     0.42564718
     0.05434783     0.35758027     0.42564718
     0.05434783     0.39924694     0.42564718
     0.05434783     0.44091361     0.42564718
     0.05434783     0.48258027     0.42564718
     0.05434783     0.52424694     0.42564718
     0.05434783     0.56591361     0.42564718
     0.05434783     0.60758027     0.42564718
     0.05434783     0.64924694     0.42564718
     0.05434783     0.69091361     0.42564718
     0.05434783     0.73258027     0.42564718
     0.05434783     0.77424694     0.42564718
     0.05434783     0.81591361     0.42564718
     0.05434783     0.85758027     0.42564718
     0.05434783     0.89924694     0.42564718
     0.05434783     0.94091361     0.42564718
     0.05434783     0.98258027     0.42564718
     0.07608696     0.02424694     0.42564718
     0.07608696     0.06591361     0.42564718
     0.07608696     0.10758027     0.42564718
     0.07608696     0.14924694     0.42564718
     0.07608696     0.19091361     0.42564718
     0.07608696     0.23258027     0.42564718
     0.07608696     0.27424694     0.42564718
     0.07608696     0.31591361     0.42564718
     0.07608696     0.35758027     0.42564718
     0.07608696     0.39924694     0.42564718
     0.07608696     0.44091361     0.42564718
     0.07608696     0.48258027     0.42564718
     0.07608696     0.52424694     0.42564718
     0.07608696     0.56591361     0.42564718
     0.07608696     0.60758027     0.42564718
     0.07608696     0.64924694     0.42564718
     0.07608696     0.69091361     0.42564718
     0.07608696     0.73258027     0.42564718
     0.07608696     0.77424694     0.42564718
     0.07608696     0.81591361     0.42564718
     0.07608696     0.85758027     0.42564718
     0.07608696     0.89924694     0.42564718
     0.07608696     0.94091361     0.42564718
     0.07608696     0.98258027     0.42564718
     0.09782609     0.02424694     0.42564718
     0.09782609     0.06591361     0.42564718
     0.09782609     0.10758027     0.42564718
     0.09782609     0.14924694     0.42564718
     0.09782609     0.19091361     0.42564718
     0.09782609     0.23258027     0.42564718
     0.09782609     0.27424694     0.42564718
     0.09782609     0.31591361     0.42564718
     0.09782609     0.35758027     0.42564718
     0.09782609     0.39924694     0.42564718
     0.09782609     0.44091361     0.42564718
     0.09782609     0.48258027     0.42564718
     0.09782609     0.52424694     0.42564718
     0.09782609     0.56591361     0.42564718
     0.09782609     0.60758027     0.42564718
     0.09782609     0.64924694     0.42564718
     0.09782609     0.69091361     0.42564718
     0.09782609     0.73258027     0.42564718
     0.09782609     0.77424694     0.42564718
     0.09782609     0.81591361     0.42564718
     0.09782609     0.85758027     0.42564718
     0.09782609     0.89924694     0.42564718
     0.09782609     0.94091361     0.42564718
     0.09782609     0.98258027     0.42564718
     0.11956522     0.02424694     0.42564718
     0.11956522     0.06591361     0.42564718
     0.11956522     0.10758027     0.42564718
     0.11956522     0.14924694     0.42564718
     0.11956522     0.19091361     0.42564718
     0.11956522     0.23258027     0.42564718
     0.11956522     0.27424694     0.42564718
     0.11956522     0.31591361     0.42564718
     0.11956522     0.35758027     0.42564718
     0.11956522     0.39924694     0.42564718
     0.11956522     0.44091361     0.42564718
     0.11956522     0.48258027     0.42564718
     0.11956522     0.52424694     0.42564718
     0.11956522     0.56591361     0.42564718
     0.11956522     0.60758027     0.42564718
     0.11956522     0.64924694     0.42564718
     0.11956522     0.69091361     0.42564718
     0.11956522     0.73258027     0.42564718
     0.11956522     0.77424694     0.42564718
     0.11956522     0.81591361     0.42564718
     0.11956522     0.85758027     0.42564718
     0.11956522     0.89924694     0.42564718
     0.11956522     0.94091361     0.42564718
     0.11956522     0.98258027     0.42564718
     0.14130435     0.02424694     0.42564718
     0.14130435     0.06591361     0.42564718
     0.14130435     0.10758027     0.42564718
     0.14130435     0.14924694     0.42564718
     0.14130435     0.19091361     0.42564718
     0.14130435     0.23258027     0.42564718
     0.14130435     0.27424694     0.42564718
     0.14130435     0.31591361     0.42564718
     0.14130435     0.35758027     0.42564718
     0.14130435     0.39924694     0.42564718
     0.14130435     0.44091361     0.42564718
     0.14130435     0.48258027     0.42564718
     0.14130435     0.52424694     0.42564718
     0.14130435     0.56591361     0.42564718
     0.14130435     0.60758027     0.42564718
     0.14130435     0.64924694     0.42564718
     0.14130435     0.69091361     0.42564718
     0.14130435     0.73258027     0.42564718
     0.14130435     0.77424694     0.42564718
     0.14130435     0.81591361     0.42564718
     0.14130435     0.85758027     0.42564718
     0.14130435     0.89924694     0.42564718
     0.14130435     0.94091361     0.42564718
     0.14130435     0.98258027     0.42564718
     0.16304348     0.02424694     0.42564718
     0.16304348     0.06591361     0.42564718
     0.16304348     0.10758027     0.42564718
     0.16304348     0.14924694     0.42564718
     0.16304348     0.19091361     0.42564718
     0.16304348     0.23258027     0.42564718
     0.16304348     0.27424694     0.42564718
     0.16304348     0.31591361     0.42564718
     0.16304348     0.35758027     0.42564718
     0.16304348     0.39924694     0.42564718
     0.16304348     0.44091361     0.42564718
     0.16304348     0.48258027     0.42564718
     0.16304348     0.52424694     0.42564718
     0.16304348     0.56591361     0.42564718
     0.16304348     0.60758027     0.42564718
     0.16304348     0.64924694     0.42564718
     0.16304348     0.69091361     0.42564718
     0.16304348     0.73258027     0.42564718
     0.16304348     0.77424694     0.42564718
     0.16304348     0.81591361     0.42564718
     0.16304348     0.85758027     0.42564718
     0.16304348     0.89924694     0.42564718
     0.16304348     0.94091361     0.42564718
     0.16304348     0.98258027     0.42564718
     0.18478261     0.02424694     0.42564718
     0.18478261     0.06591361     0.42564718
     0.18478261     0.10758027     0.42564718
     0.18478261     0.14924694     0.42564718
     0.18478261     0.19091361     0.42564718
     0.18478261     0.23258027     0.42564718
     0.18478261     0.27424694     0.42564718
     0.18478261     0.31591361     0.42564718
     0.18478261     0.35758027     0.42564718
     0.18478261     0.39924694     0.42564718
     0.18478261     0.44091361     0.42564718
     0.18478261     0.48258027     0.42564718
     0.18478261     0.52424694     0.42564718
     0.18478261     0.56591361     0.42564718
     0.18478261     0.60758027     0.42564718
     0.18478261     0.64924694     0.42564718
     0.18478261     0.69091361     0.42564718
     0.18478261     0.73258027     0.42564718
     0.18478261     0.77424694     0.42564718
     0.18478261     0.81591361     0.42564718
     0.18478261     0.85758027     0.42564718
     0.18478261     0.89924694     0.42564718
     0.18478261     0.94091361     0.42564718
     0.18478261     0.98258027     0.42564718
     0.20652174     0.02424694     0.42564718
     0.20652174     0.06591361     0.42564718
     0.20652174     0.10758027     0.42564718
     0.20652174     0.14924694     0.42564718
     0.20652174     0.19091361     0.42564718
     0.20652174     0.23258027     0.42564718
     0.20652174     0.27424694     0.42564718
     0.20652174     0.31591361     0.42564718
     0.20652174     0.35758027     0.42564718
     0.20652174     0.39924694     0.42564718
     0.20652174     0.44091361     0.42564718
     0.20652174     0.48258027     0.42564718
     0.20652174     0.52424694     0.42564718
     0.20652174     0.56591361     0.42564718
     0.20652174     0.60758027     0.42564718
     0.20652174     0.64924694     0.42564718
     0.20652174     0.69091361     0.42564718
     0.20652174     0.73258027     0.42564718
     0.20652174     0.77424694     0.42564718
     0.20652174     0.81591361     0.42564718
     0.20652174     0.85758027     0.42564718
     0.20652174     0.89924694     0.42564718
     0.20652174     0.94091361     0.42564718
     0.20652174     0.98258027     0.42564718
     0.22826087     0.02424694     0.42564718
     0.22826087     0.06591361     0.42564718
     0.22826087     0.10758027     0.42564718
     0.22826087     0.14924694     0.42564718
     0.22826087     0.19091361     0.42564718
     0.22826087     0.23258027     0.42564718
     0.22826087     0.27424694     0.42564718
     0.22826087     0.31591361     0.42564718
     0.22826087     0.35758027     0.42564718
     0.22826087     0.39924694     0.42564718
     0.22826087     0.44091361     0.42564718
     0.22826087     0.48258027     0.42564718
     0.22826087     0.52424694     0.42564718
     0.22826087     0.56591361     0.42564718
     0.22826087     0.60758027     0.42564718
     0.22826087     0.64924694     0.42564718
     0.22826087     0.69091361     0.42564718
     0.22826087     0.73258027     0.42564718
     0.22826087     0.77424694     0.42564718
     0.22826087     0.81591361     0.42564718
     0.22826087     0.85758027     0.42564718
     0.22826087     0.89924694     0.42564718
     0.22826087     0.94091361     0.42564718
     0.22826087     0.98258027     0.42564718
     0.25000000     0.02424694     0.42564718
     0.25000000     0.06591361     0.42564718
     0.25000000     0.10758027     0.42564718
     0.25000000     0.14924694     0.42564718
     0.25000000     0.19091361     0.42564718
     0.25000000     0.23258027     0.42564718
     0.25000000     0.27424694     0.42564718
     0.25000000     0.31591361     0.42564718
     0.25000000     0.35758027     0.42564718
     0.25000000     0.39924694     0.42564718
     0.25000000     0.44091361     0.42564718
     0.25000000     0.48258027     0.42564718
     0.25000000     0.52424694     0.42564718
     0.25000000     0.56591361     0.42564718
     0.25000000     0.60758027     0.42564718
     0.25000000     0.64924694     0.42564718
     0.25000000     0.69091361     0.42564718
     0.25000000     0.73258027     0.42564718
     0.25000000     0.77424694     0.42564718
     0.25000000     0.81591361     0.42564718
     0.25000000     0.85758027     0.42564718
     0.25000000     0.89924694     0.42564718
     0.25000000     0.94091361     0.42564718
     0.25000000     0.98258027     0.42564718
     0.27173913     0.02424694     0.42564718
     0.27173913     0.06591361     0.42564718
     0.27173913     0.10758027     0.42564718
     0.27173913     0.14924694     0.42564718
     0.27173913     0.19091361     0.42564718
     0.27173913     0.23258027     0.42564718
     0.27173913     0.27424694     0.42564718
     0.27173913     0.31591361     0.42564718
     0.27173913     0.35758027     0.42564718
     0.27173913     0.39924694     0.42564718
     0.27173913     0.44091361     0.42564718
     0.27173913     0.48258027     0.42564718
     0.27173913     0.52424694     0.42564718
     0.27173913     0.56591361     0.42564718
     0.27173913     0.60758027     0.42564718
     0.27173913     0.64924694     0.42564718
     0.27173913     0.69091361     0.42564718
     0.27173913     0.73258027     0.42564718
     0.27173913     0.77424694     0.42564718
     0.27173913     0.81591361     0.42564718
     0.27173913     0.85758027     0.42564718
     0.27173913     0.89924694     0.42564718
     0.27173913     0.94091361     0.42564718
     0.27173913     0.98258027     0.42564718
     0.29347826     0.02424694     0.42564718
     0.29347826     0.06591361     0.42564718
     0.29347826     0.10758027     0.42564718
     0.29347826     0.14924694     0.42564718
     0.29347826     0.19091361     0.42564718
     0.29347826     0.23258027     0.42564718
     0.29347826     0.27424694     0.42564718
     0.29347826     0.31591361     0.42564718
     0.29347826     0.35758027     0.42564718
     0.29347826     0.39924694     0.42564718
     0.29347826     0.44091361     0.42564718
     0.29347826     0.48258027     0.42564718
     0.29347826     0.52424694     0.42564718
     0.29347826     0.56591361     0.42564718
     0.29347826     0.60758027     0.42564718
     0.29347826     0.64924694     0.42564718
     0.29347826     0.69091361     0.42564718
     0.29347826     0.73258027     0.42564718
     0.29347826     0.77424694     0.42564718
     0.29347826     0.81591361     0.42564718
     0.29347826     0.85758027     0.42564718
     0.29347826     0.89924694     0.42564718
     0.29347826     0.94091361     0.42564718
     0.29347826     0.98258027     0.42564718
     0.31521739     0.02424694     0.42564718
     0.31521739     0.06591361     0.42564718
     0.31521739     0.10758027     0.42564718
     0.31521739     0.14924694     0.42564718
     0.31521739     0.19091361     0.42564718
     0.31521739     0.23258027     0.42564718
     0.31521739     0.27424694     0.42564718
     0.31521739     0.31591361     0.42564718
     0.31521739     0.35758027     0.42564718
     0.31521739     0.39924694     0.42564718
     0.31521739     0.44091361     0.42564718
     0.31521739     0.48258027     0.42564718
     0.31521739     0.52424694     0.42564718
     0.31521739     0.56591361     0.42564718
     0.31521739     0.60758027     0.42564718
     0.31521739     0.64924694     0.42564718
     0.31521739     0.69091361     0.42564718
     0.31521739     0.73258027     0.42564718
     0.31521739     0.77424694     0.42564718
     0.31521739     0.81591361     0.42564718
     0.31521739     0.85758027     0.42564718
     0.31521739     0.89924694     0.42564718
     0.31521739     0.94091361     0.42564718
     0.31521739     0.98258027     0.42564718
     0.33695652     0.02424694     0.42564718
     0.33695652     0.06591361     0.42564718
     0.33695652     0.10758027     0.42564718
     0.33695652     0.14924694     0.42564718
     0.33695652     0.19091361     0.42564718
     0.33695652     0.23258027     0.42564718
     0.33695652     0.27424694     0.42564718
     0.33695652     0.31591361     0.42564718
     0.33695652     0.35758027     0.42564718
     0.33695652     0.39924694     0.42564718
     0.33695652     0.44091361     0.42564718
     0.33695652     0.48258027     0.42564718
     0.33695652     0.52424694     0.42564718
     0.33695652     0.56591361     0.42564718
     0.33695652     0.60758027     0.42564718
     0.33695652     0.64924694     0.42564718
     0.33695652     0.69091361     0.42564718
     0.33695652     0.73258027     0.42564718
     0.33695652     0.77424694     0.42564718
     0.33695652     0.81591361     0.42564718
     0.33695652     0.85758027     0.42564718
     0.33695652     0.89924694     0.42564718
     0.33695652     0.94091361     0.42564718
     0.33695652     0.98258027     0.42564718
     0.35869565     0.02424694     0.42564718
     0.35869565     0.06591361     0.42564718
     0.35869565     0.10758027     0.42564718
     0.35869565     0.14924694     0.42564718
     0.35869565     0.19091361     0.42564718
     0.35869565     0.23258027     0.42564718
     0.35869565     0.27424694     0.42564718
     0.35869565     0.31591361     0.42564718
     0.35869565     0.35758027     0.42564718
     0.35869565     0.39924694     0.42564718
     0.35869565     0.44091361     0.42564718
     0.35869565     0.48258027     0.42564718
     0.35869565     0.52424694     0.42564718
     0.35869565     0.56591361     0.42564718
     0.35869565     0.60758027     0.42564718
     0.35869565     0.64924694     0.42564718
     0.35869565     0.69091361     0.42564718
     0.35869565     0.73258027     0.42564718
     0.35869565     0.77424694     0.42564718
     0.35869565     0.81591361     0.42564718
     0.35869565     0.85758027     0.42564718
     0.35869565     0.89924694     0.42564718
     0.35869565     0.94091361     0.42564718
     0.35869565     0.98258027     0.42564718
     0.38043478     0.02424694     0.42564718
     0.38043478     0.06591361     0.42564718
     0.38043478     0.10758027     0.42564718
     0.38043478     0.14924694     0.42564718
     0.38043478     0.19091361     0.42564718
     0.38043478     0.23258027     0.42564718
     0.38043478     0.27424694     0.42564718
     0.38043478     0.31591361     0.42564718
     0.38043478     0.35758027     0.42564718
     0.38043478     0.39924694     0.42564718
     0.38043478     0.44091361     0.42564718
     0.38043478     0.48258027     0.42564718
     0.38043478     0.52424694     0.42564718
     0.38043478     0.56591361     0.42564718
     0.38043478     0.60758027     0.42564718
     0.38043478     0.64924694     0.42564718
     0.38043478     0.69091361     0.42564718
     0.38043478     0.73258027     0.42564718
     0.38043478     0.77424694     0.42564718
     0.38043478     0.81591361     0.42564718
     0.38043478     0.85758027     0.42564718
     0.38043478     0.89924694     0.42564718
     0.38043478     0.94091361     0.42564718
     0.38043478     0.98258027     0.42564718
     0.40217391     0.02424694     0.42564718
     0.40217391     0.06591361     0.42564718
     0.40217391     0.10758027     0.42564718
     0.40217391     0.14924694     0.42564718
     0.40217391     0.19091361     0.42564718
     0.40217391     0.23258027     0.42564718
     0.40217391     0.27424694     0.42564718
     0.40217391     0.31591361     0.42564718
     0.40217391     0.35758027     0.42564718
     0.40217391     0.39924694     0.42564718
     0.40217391     0.44091361     0.42564718
     0.40217391     0.48258027     0.42564718
     0.40217391     0.52424694     0.42564718
     0.40217391     0.56591361     0.42564718
     0.40217391     0.60758027     0.42564718
     0.40217391     0.64924694     0.42564718
     0.40217391     0.69091361     0.42564718
     0.40217391     0.73258027     0.42564718
     0.40217391     0.77424694     0.42564718
     0.40217391     0.81591361     0.42564718
     0.40217391     0.85758027     0.42564718
     0.40217391     0.89924694     0.42564718
     0.40217391     0.94091361     0.42564718
     0.40217391     0.98258027     0.42564718
     0.42391304     0.02424694     0.42564718
     0.42391304     0.06591361     0.42564718
     0.42391304     0.10758027     0.42564718
     0.42391304     0.14924694     0.42564718
     0.42391304     0.19091361     0.42564718
     0.42391304     0.23258027     0.42564718
     0.42391304     0.27424694     0.42564718
     0.42391304     0.31591361     0.42564718
     0.42391304     0.35758027     0.42564718
     0.42391304     0.39924694     0.42564718
     0.42391304     0.44091361     0.42564718
     0.42391304     0.48258027     0.42564718
     0.42391304     0.52424694     0.42564718
     0.42391304     0.56591361     0.42564718
     0.42391304     0.60758027     0.42564718
     0.42391304     0.64924694     0.42564718
     0.42391304     0.69091361     0.42564718
     0.42391304     0.73258027     0.42564718
     0.42391304     0.77424694     0.42564718
     0.42391304     0.81591361     0.42564718
     0.42391304     0.85758027     0.42564718
     0.42391304     0.89924694     0.42564718
     0.42391304     0.94091361     0.42564718
     0.42391304     0.98258027     0.42564718
     0.44565217     0.02424694     0.42564718
     0.44565217     0.06591361     0.42564718
     0.44565217     0.10758027     0.42564718
     0.44565217     0.14924694     0.42564718
     0.44565217     0.19091361     0.42564718
     0.44565217     0.23258027     0.42564718
     0.44565217     0.27424694     0.42564718
     0.44565217     0.31591361     0.42564718
     0.44565217     0.35758027     0.42564718
     0.44565217     0.39924694     0.42564718
     0.44565217     0.44091361     0.42564718
     0.44565217     0.48258027     0.42564718
     0.44565217     0.52424694     0.42564718
     0.44565217     0.56591361     0.42564718
     0.44565217     0.60758027     0.42564718
     0.44565217     0.64924694     0.42564718
     0.44565217     0.69091361     0.42564718
     0.44565217     0.73258027     0.42564718
     0.44565217     0.77424694     0.42564718
     0.44565217     0.81591361     0.42564718
     0.44565217     0.85758027     0.42564718
     0.44565217     0.89924694     0.42564718
     0.44565217     0.94091361     0.42564718
     0.44565217     0.98258027     0.42564718
     0.46739130     0.02424694     0.42564718
     0.46739130     0.06591361     0.42564718
     0.46739130     0.10758027     0.42564718
     0.46739130     0.14924694     0.42564718
     0.46739130     0.19091361     0.42564718
     0.46739130     0.23258027     0.42564718
     0.46739130     0.27424694     0.42564718
     0.46739130     0.31591361     0.42564718
     0.46739130     0.35758027     0.42564718
     0.46739130     0.39924694     0.42564718
     0.46739130     0.44091361     0.42564718
     0.46739130     0.48258027     0.42564718
     0.46739130     0.52424694     0.42564718
     0.46739130     0.56591361     0.42564718
     0.46739130     0.60758027     0.42564718
     0.46739130     0.64924694     0.42564718
     0.46739130     0.69091361     0.42564718
     0.46739130     0.73258027     0.42564718
     0.46739130     0.77424694     0.42564718
     0.46739130     0.81591361     0.42564718
     0.46739130     0.85758027     0.42564718
     0.46739130     0.89924694     0.42564718
     0.46739130     0.94091361     0.42564718
     0.46739130     0.98258027     0.42564718
     0.48913043     0.02424694     0.42564718
     0.48913043     0.06591361     0.42564718
     0.48913043     0.10758027     0.42564718
     0.48913043     0.14924694     0.42564718
     0.48913043     0.19091361     0.42564718
     0.48913043     0.23258027     0.42564718
     0.48913043     0.27424694     0.42564718
     0.48913043     0.31591361     0.42564718
     0.48913043     0.35758027     0.42564718
     0.48913043     0.39924694     0.42564718
     0.48913043     0.44091361     0.42564718
     0.48913043     0.48258027     0.42564718
     0.48913043     0.52424694     0.42564718
     0.48913043     0.56591361     0.42564718
     0.48913043     0.60758027     0.42564718
     0.48913043     0.64924694     0.42564718
     0.48913043     0.69091361     0.42564718
     0.48913043     0.73258027     0.42564718
     0.48913043     0.77424694     0.42564718
     0.48913043     0.81591361     0.42564718
     0.48913043     0.85758027     0.42564718
     0.48913043     0.89924694     0.42564718
     0.48913043     0.94091361     0.42564718
     0.48913043     0.98258027     0.42564718
     0.51086957     0.02424694     0.42564718
     0.51086957     0.06591361     0.42564718
     0.51086957     0.10758027     0.42564718
     0.51086957     0.14924694     0.42564718
     0.51086957     0.19091361     0.42564718
     0.51086957     0.23258027     0.42564718
     0.51086957     0.27424694     0.42564718
     0.51086957     0.31591361     0.42564718
     0.51086957     0.35758027     0.42564718
     0.51086957     0.39924694     0.42564718
     0.51086957     0.44091361     0.42564718
     0.51086957     0.48258027     0.42564718
     0.51086957     0.52424694     0.42564718
     0.51086957     0.56591361     0.42564718
     0.51086957     0.60758027     0.42564718
     0.51086957     0.64924694     0.42564718
     0.51086957     0.69091361     0.42564718
     0.51086957     0.73258027     0.42564718
     0.51086957     0.77424694     0.42564718
     0.51086957     0.81591361     0.42564718
     0.51086957     0.85758027     0.42564718
     0.51086957     0.89924694     0.42564718
     0.51086957     0.94091361     0.42564718
     0.51086957     0.98258027     0.42564718
     0.53260870     0.02424694     0.42564718
     0.53260870     0.06591361     0.42564718
     0.53260870     0.10758027     0.42564718
     0.53260870     0.14924694     0.42564718
     0.53260870     0.19091361     0.42564718
     0.53260870     0.23258027     0.42564718
     0.53260870     0.27424694     0.42564718
     0.53260870     0.31591361     0.42564718
     0.53260870     0.35758027     0.42564718
     0.53260870     0.39924694     0.42564718
     0.53260870     0.44091361     0.42564718
     0.53260870     0.48258027     0.42564718
     0.53260870     0.52424694     0.42564718
     0.53260870     0.56591361     0.42564718
     0.53260870     0.60758027     0.42564718
     0.53260870     0.64924694     0.42564718
     0.53260870     0.69091361     0.42564718
     0.53260870     0.73258027     0.42564718
     0.53260870     0.77424694     0.42564718
     0.53260870     0.81591361     0.42564718
     0.53260870     0.85758027     0.42564718
     0.53260870     0.89924694     0.42564718
     0.53260870     0.94091361     0.42564718
     0.53260870     0.98258027     0.42564718
     0.55434783     0.02424694     0.42564718
     0.55434783     0.06591361     0.42564718
     0.55434783     0.10758027     0.42564718
     0.55434783     0.14924694     0.42564718
     0.55434783     0.19091361     0.42564718
     0.55434783     0.23258027     0.42564718
     0.55434783     0.27424694     0.42564718
     0.55434783     0.31591361     0.42564718
     0.55434783     0.35758027     0.42564718
     0.55434783     0.39924694     0.42564718
     0.55434783     0.44091361     0.42564718
     0.55434783     0.48258027     0.42564718
     0.55434783     0.52424694     0.42564718
     0.55434783     0.56591361     0.42564718
     0.55434783     0.60758027     0.42564718
     0.55434783     0.64924694     0.42564718
     0.55434783     0.69091361     0.42564718
     0.55434783     0.73258027     0.42564718
     0.55434783     0.77424694     0.42564718
     0.55434783     0.81591361     0.42564718
     0.55434783     0.85758027     0.42564718
     0.55434783     0.89924694     0.42564718
     0.55434783     0.94091361     0.42564718
     0.55434783     0.98258027     0.42564718
     0.57608696     0.02424694     0.42564718
     0.57608696     0.06591361     0.42564718
     0.57608696     0.10758027     0.42564718
     0.57608696     0.14924694     0.42564718
     0.57608696     0.19091361     0.42564718
     0.57608696     0.23258027     0.42564718
     0.57608696     0.27424694     0.42564718
     0.57608696     0.31591361     0.42564718
     0.57608696     0.35758027     0.42564718
     0.57608696     0.39924694     0.42564718
     0.57608696     0.44091361     0.42564718
     0.57608696     0.48258027     0.42564718
     0.57608696     0.52424694     0.42564718
     0.57608696     0.56591361     0.42564718
     0.57608696     0.60758027     0.42564718
     0.57608696     0.64924694     0.42564718
     0.57608696     0.69091361     0.42564718
     0.57608696     0.73258027     0.42564718
     0.57608696     0.77424694     0.42564718
     0.57608696     0.81591361     0.42564718
     0.57608696     0.85758027     0.42564718
     0.57608696     0.89924694     0.42564718
     0.57608696     0.94091361     0.42564718