Generated by Twist2D
    1.0
     168.14698138       0.00000000       0.00000000
       0.00000000     115.19264455       0.00000000
       0.00000000       0.00000000      20.00000000
    P
    10612
Direct
     0.00980392     0.02238179     0.42564718
     0.00980392     0.06084333     0.42564718
     0.00980392     0.09930487     0.42564718
     0.00980392     0.13776640     0.42564718
     0.00980392     0.17622794     0.42564718
     0.00980392     0.21468948     0.42564718
     0.00980392     0.25315102     0.42564718
     0.00980392     0.29161256     0.42564718
     0.00980392     0.33007410     0.42564718
     0.00980392     0.36853564     0.42564718
     0.00980392     0.40699717     0.42564718
     0.00980392     0.44545871     0.42564718
     0.00980392     0.48392025     0.42564718
     0.00980392     0.52238179     0.42564718
     0.00980392     0.56084333     0.42564718
     0.00980392     0.59930487     0.42564718
     0.00980392     0.63776640     0.42564718
     0.00980392     0.67622794     0.42564718
     0.00980392     0.71468948     0.42564718
     0.00980392     0.75315102     0.42564718
     0.00980392     0.79161256     0.42564718
     0.00980392     0.83007410     0.42564718
     0.00980392     0.86853564     0.42564718
     0.00980392     0.90699717     0.42564718
     0.00980392     0.94545871     0.42564718
     0.00980392     0.98392025     0.42564718
     0.02941176     0.02238179     0.42564718
     0.02941176     0.06084333     0.42564718
     0.02941176     0.09930487     0.42564718
     0.02941176     0.13776640     0.42564718
     0.02941176     0.17622794     0.42564718
     0.02941176     0.21468948     0.42564718
     0.02941176     0.25315102     0.42564718
     0.02941176     0.29161256     0.42564718
     0.02941176     0.33007410     0.42564718
     0.02941176     0.36853564     0.42564718
     0.02941176     0.40699717     0.42564718
     0.02941176     0.44545871     0.42564718
     0.02941176     0.48392025     0.42564718
     0.02941176     0.52238179     0.42564718
     0.02941176     0.56084333     0.42564718
     0.02941176     0.59930487     0.42564718
     0.02941176     0.63776640     0.42564718
     0.02941176     0.67622794     0.42564718
     0.02941176     0.71468948     0.42564718
     0.02941176     0.75315102     0.42564718
     0.02941176     0.79161256     0.42564718
     0.02941176     0.83007410     0.42564718
     0.02941176     0.86853564     0.42564718
     0.02941176     0.90699717     0.42564718
     0.02941176     0.94545871     0.42564718
     0.02941176     0.98392025     0.42564718
     0.04901961     0.02238179     0.42564718
     0.04901961     0.06084333     0.42564718
     0.04901961     0.09930487     0.42564718
     0.04901961     0.13776640     0.42564718
     0.04901961     0.17622794     0.42564718
     0.04901961     0.21468948     0.42564718
     0.04901961     0.25315102     0.42564718
     0.04901961     0.29161256     0.42564718
     0.04901961     0.33007410     0.42564718
     0.04901961     0.36853564     0.42564718
     0.04901961     0.40699717     0.42564718
     0.04901961     0.44545871     0.42564718
     0.04901961     0.48392025     0.42564718
     0.04901961     0.52238179     0.42564718
     0.04901961     0.56084333     0.42564718
     0.04901961     0.59930487     0.42564718
     0.04901961     0.63776640     0.42564718
     0.04901961     0.67622794     0.42564718
     0.04901961     0.71468948     0.42564718
     0.04901961     0.75315102     0.42564718
     0.04901961     0.79161256     0.42564718
     0.04901961     0.83007410     0.42564718
     0.04901961     0.86853564     0.42564718
     0.04901961     0.90699717     0.42564718
     0.04901961     0.94545871     0.42564718
     0.04901961     0.98392025     0.42564718
     0.06862745     0.02238179     0.42564718
     0.06862745     0.06084333     0.42564718
     0.06862745     0.09930487     0.42564718
     0.06862745     0.13776640     0.42564718
     0.06862745     0.17622794     0.42564718
     0.06862745     0.21468948     0.42564718
     0.06862745     0.25315102     0.42564718
     0.06862745     0.29161256     0.42564718
     0.06862745     0.33007410     0.42564718
     0.06862745     0.36853564     0.42564718
     0.06862745     0.40699717     0.42564718
     0.06862745     0.44545871     0.42564718
     0.06862745     0.48392025     0.42564718
     0.06862745     0.52238179     0.42564718
     0.06862745     0.56084333     0.42564718
     0.06862745     0.59930487     0.42564718
     0.06862745     0.63776640     0.42564718
     0.06862745     0.67622794     0.42564718
     0.06862745     0.71468948     0.42564718
     0.06862745     0.75315102     0.42564718
     0.06862745     0.79161256     0.42564718
     0.06862745     0.83007410     0.42564718
     0.06862745     0.86853564     0.42564718
     0.06862745     0.90699717     0.42564718
     0.06862745     0.94545871     0.42564718
     0.06862745     0.98392025     0.42564718
     0.08823529     0.02238179     0.42564718
     0.08823529     0.06084333     0.42564718
     0.08823529     0.09930487     0.42564718
     0.08823529     0.13776640     0.42564718
     0.08823529     0.17622794     0.42564718
     0.08823529     0.21468948     0.42564718
     0.08823529     0.25315102     0.42564718
     0.08823529     0.29161256     0.42564718
     0.08823529     0.33007410     0.42564718
     0.08823529     0.36853564     0.42564718
     0.08823529     0.40699717     0.42564718
     0.08823529     0.44545871     0.42564718
     0.08823529     0.48392025     0.42564718
     0.08823529     0.52238179     0.42564718
     0.08823529     0.56084333     0.42564718
     0.08823529     0.59930487     0.42564718
     0.08823529     0.63776640     0.42564718
     0.08823529     0.67622794     0.42564718
     0.08823529     0.71468948     0.42564718
     0.08823529     0.75315102     0.42564718
     0.08823529     0.79161256     0.42564718
     0.08823529     0.83007410     0.42564718
     0.08823529     0.86853564     0.42564718
     0.08823529     0.90699717     0.42564718
     0.08823529     0.94545871     0.42564718
     0.08823529     0.98392025     0.42564718
     0.10784314     0.02238179     0.42564718
     0.10784314     0.06084333     0.42564718
     0.10784314     0.09930487     0.42564718
     0.10784314     0.13776640     0.42564718
     0.10784314     0.17622794     0.42564718
     0.10784314     0.21468948     0.42564718
     0.10784314     0.25315102     0.42564718
     0.10784314     0.29161256     0.42564718
     0.10784314     0.33007410     0.42564718
     0.10784314     0.36853564     0.42564718
     0.10784314     0.40699717     0.42564718
     0.10784314     0.44545871     0.42564718
     0.10784314     0.48392025     0.42564718
     0.10784314     0.52238179     0.42564718
     0.10784314     0.56084333     0.42564718
     0.10784314     0.59930487     0.42564718
     0.10784314     0.63776640     0.42564718
     0.10784314     0.67622794     0.42564718
     0.10784314     0.71468948     0.42564718
     0.10784314     0.75315102     0.42564718
     0.10784314     0.79161256     0.42564718
     0.10784314     0.83007410     0.42564718
     0.10784314     0.86853564     0.42564718
     0.10784314     0.90699717     0.42564718
     0.10784314     0.94545871     0.42564718
     0.10784314     0.98392025     0.42564718
     0.12745098     0.02238179     0.42564718
     0.12745098     0.06084333     0.42564718
     0.12745098     0.09930487     0.42564718
     0.12745098     0.13776640     0.42564718
     0.12745098     0.17622794     0.42564718
     0.12745098     0.21468948     0.42564718
     0.12745098     0.25315102     0.42564718
     0.12745098     0.29161256     0.42564718
     0.12745098     0.33007410     0.42564718
     0.12745098     0.36853564     0.42564718
     0.12745098     0.40699717     0.42564718
     0.12745098     0.44545871     0.42564718
     0.12745098     0.48392025     0.42564718
     0.12745098     0.52238179     0.42564718
     0.12745098     0.56084333     0.42564718
     0.12745098     0.59930487     0.42564718
     0.12745098     0.63776640     0.42564718
     0.12745098     0.67622794     0.42564718
     0.12745098     0.71468948     0.42564718
     0.12745098     0.75315102     0.42564718
     0.12745098     0.79161256     0.42564718
     0.12745098     0.83007410     0.42564718
     0.12745098     0.86853564     0.42564718
     0.12745098     0.90699717     0.42564718
     0.12745098     0.94545871     0.42564718
     0.12745098     0.98392025     0.42564718
     0.14705882     0.02238179     0.42564718
     0.14705882     0.06084333     0.42564718
     0.14705882     0.09930487     0.42564718
     0.14705882     0.13776640     0.42564718
     0.14705882     0.17622794     0.42564718
     0.14705882     0.21468948     0.42564718
     0.14705882     0.25315102     0.42564718
     0.14705882     0.29161256     0.42564718
     0.14705882     0.33007410     0.42564718
     0.14705882     0.36853564     0.42564718
     0.14705882     0.40699717     0.42564718
     0.14705882     0.44545871     0.42564718
     0.14705882     0.48392025     0.42564718
     0.14705882     0.52238179     0.42564718
     0.14705882     0.56084333     0.42564718
     0.14705882     0.59930487     0.42564718
     0.14705882     0.63776640     0.42564718
     0.14705882     0.67622794     0.42564718
     0.14705882     0.71468948     0.42564718
     0.14705882     0.75315102     0.42564718
     0.14705882     0.79161256     0.42564718
     0.14705882     0.83007410     0.42564718
     0.14705882     0.86853564     0.42564718
     0.14705882     0.90699717     0.42564718
     0.14705882     0.94545871     0.42564718
     0.14705882     0.98392025     0.42564718
     0.16666667     0.02238179     0.42564718
     0.16666667     0.06084333     0.42564718
     0.16666667     0.09930487     0.42564718
     0.16666667     0.13776640     0.42564718
     0.16666667     0.17622794     0.42564718
     0.16666667     0.21468948     0.42564718
     0.16666667     0.25315102     0.42564718
     0.16666667     0.29161256     0.42564718
     0.16666667     0.33007410     0.42564718
     0.16666667     0.36853564     0.42564718
     0.16666667     0.40699717     0.42564718
     0.16666667     0.44545871     0.42564718
     0.16666667     0.48392025     0.42564718
     0.16666667     0.52238179     0.42564718
     0.16666667     0.56084333     0.42564718
     0.16666667     0.59930487     0.42564718
     0.16666667     0.63776640     0.42564718
     0.16666667     0.67622794     0.42564718
     0.16666667     0.71468948     0.42564718
     0.16666667     0.75315102     0.42564718
     0.16666667     0.79161256     0.42564718
     0.16666667     0.83007410     0.42564718
     0.16666667     0.86853564     0.42564718
     0.16666667     0.90699717     0.42564718
     0.16666667     0.94545871     0.42564718
     0.16666667     0.98392025     0.42564718
     0.18627451     0.02238179     0.42564718
     0.18627451     0.06084333     0.42564718
     0.18627451     0.09930487     0.42564718
     0.18627451     0.13776640     0.42564718
     0.18627451     0.17622794     0.42564718
     0.18627451     0.21468948     0.42564718
     0.18627451     0.25315102     0.42564718
     0.18627451     0.29161256     0.42564718
     0.18627451     0.33007410     0.42564718
     0.18627451     0.36853564     0.42564718
     0.18627451     0.40699717     0.42564718
     0.18627451     0.44545871     0.42564718
     0.18627451     0.48392025     0.42564718
     0.18627451     0.52238179     0.42564718
     0.18627451     0.56084333     0.42564718
     0.18627451     0.59930487     0.42564718
     0.18627451     0.63776640     0.42564718
     0.18627451     0.67622794     0.42564718
     0.18627451     0.71468948     0.42564718
     0.18627451     0.75315102     0.42564718
     0.18627451     0.79161256     0.42564718
     0.18627451     0.83007410     0.42564718
     0.18627451     0.86853564     0.42564718
     0.18627451     0.90699717     0.42564718
     0.18627451     0.94545871     0.42564718
     0.18627451     0.98392025     0.42564718
     0.20588235     0.02238179     0.42564718
     0.20588235     0.06084333     0.42564718
     0.20588235     0.09930487     0.42564718
     0.20588235     0.13776640     0.42564718
     0.20588235     0.17622794     0.42564718
     0.20588235     0.21468948     0.42564718
     0.20588235     0.25315102     0.42564718
     0.20588235     0.29161256     0.42564718
     0.20588235     0.33007410     0.42564718
     0.20588235     0.36853564     0.42564718
     0.20588235     0.40699717     0.42564718
     0.20588235     0.44545871     0.42564718
     0.20588235     0.48392025     0.42564718
     0.20588235     0.52238179     0.42564718
     0.20588235     0.56084333     0.42564718
     0.20588235     0.59930487     0.42564718
     0.20588235     0.63776640     0.42564718
     0.20588235     0.67622794     0.42564718
     0.20588235     0.71468948     0.42564718
     0.20588235     0.75315102     0.42564718
     0.20588235     0.79161256     0.42564718
     0.20588235     0.83007410     0.42564718
     0.20588235     0.86853564     0.42564718
     0.20588235     0.90699717     0.42564718
     0.20588235     0.94545871     0.42564718
     0.20588235     0.98392025     0.42564718
     0.22549020     0.02238179     0.42564718
     0.22549020     0.06084333     0.42564718
     0.22549020     0.09930487     0.42564718
     0.22549020     0.13776640     0.42564718
     0.22549020     0.17622794     0.42564718
     0.22549020     0.21468948     0.42564718
     0.22549020     0.25315102     0.42564718
     0.22549020     0.29161256     0.42564718
     0.22549020     0.33007410     0.42564718
     0.22549020     0.36853564     0.42564718
     0.22549020     0.40699717     0.42564718
     0.22549020     0.44545871     0.42564718
     0.22549020     0.48392025     0.42564718
     0.22549020     0.52238179     0.42564718
     0.22549020     0.56084333     0.42564718
     0.22549020     0.59930487     0.42564718
     0.22549020     0.63776640     0.42564718
     0.22549020     0.67622794     0.42564718
     0.22549020     0.71468948     0.42564718
     0.22549020     0.75315102     0.42564718
     0.22549020     0.79161256     0.42564718
     0.22549020     0.83007410     0.42564718
     0.22549020     0.86853564     0.42564718
     0.22549020     0.90699717     0.42564718
     0.22549020     0.94545871     0.42564718
     0.22549020     0.98392025     0.42564718
     0.24509804     0.02238179     0.42564718
     0.24509804     0.06084333     0.42564718
     0.24509804     0.09930487     0.42564718
     0.24509804     0.13776640     0.42564718
     0.24509804     0.17622794     0.42564718
     0.24509804     0.21468948     0.42564718
     0.24509804     0.25315102     0.42564718
     0.24509804     0.29161256     0.42564718
     0.24509804     0.33007410     0.42564718
     0.24509804     0.36853564     0.42564718
     0.24509804     0.40699717     0.42564718
     0.24509804     0.44545871     0.42564718
     0.24509804     0.48392025     0.42564718
     0.24509804     0.52238179     0.42564718
     0.24509804     0.56084333     0.42564718
     0.24509804     0.59930487     0.42564718
     0.24509804     0.63776640     0.42564718
     0.24509804     0.67622794     0.42564718
     0.24509804     0.71468948     0.42564718
     0.24509804     0.75315102     0.42564718
     0.24509804     0.79161256     0.42564718
     0.24509804     0.83007410     0.42564718
     0.24509804     0.86853564     0.42564718
     0.24509804     0.90699717     0.42564718
     0.24509804     0.94545871     0.42564718
     0.24509804     0.98392025     0.42564718
     0.26470588     0.02238179     0.42564718
     0.26470588     0.06084333     0.42564718
     0.26470588     0.09930487     0.42564718
     0.26470588     0.13776640     0.42564718
     0.26470588     0.17622794     0.42564718
     0.26470588     0.21468948     0.42564718
     0.26470588     0.25315102     0.42564718
     0.26470588     0.29161256     0.42564718
     0.26470588     0.33007410     0.42564718
     0.26470588     0.36853564     0.42564718
     0.26470588     0.40699717     0.42564718
     0.26470588     0.44545871     0.42564718
     0.26470588     0.48392025     0.42564718
     0.26470588     0.52238179     0.42564718
     0.26470588     0.56084333     0.42564718
     0.26470588     0.59930487     0.42564718
     0.26470588     0.63776640     0.42564718
     0.26470588     0.67622794     0.42564718
     0.26470588     0.71468948     0.42564718
     0.26470588     0.75315102     0.42564718
     0.26470588     0.79161256     0.42564718
     0.26470588     0.83007410     0.42564718
     0.26470588     0.86853564     0.42564718
     0.26470588     0.90699717     0.42564718
     0.26470588     0.94545871     0.42564718
     0.26470588     0.98392025     0.42564718
     0.28431373     0.02238179     0.42564718
     0.28431373     0.06084333     0.42564718
     0.28431373     0.09930487     0.42564718
     0.28431373     0.13776640     0.42564718
     0.28431373     0.17622794     0.42564718
     0.28431373     0.21468948     0.42564718
     0.28431373     0.25315102     0.42564718
     0.28431373     0.29161256     0.42564718
     0.28431373     0.33007410     0.42564718
     0.28431373     0.36853564     0.42564718
     0.28431373     0.40699717     0.42564718
     0.28431373     0.44545871     0.42564718
     0.28431373     0.48392025     0.42564718
     0.28431373     0.52238179     0.42564718
     0.28431373     0.56084333     0.42564718
     0.28431373     0.59930487     0.42564718
     0.28431373     0.63776640     0.42564718
     0.28431373     0.67622794     0.42564718
     0.28431373     0.71468948     0.42564718
     0.28431373     0.75315102     0.42564718
     0.28431373     0.79161256     0.42564718
     0.28431373     0.83007410     0.42564718
     0.28431373     0.86853564     0.42564718
     0.28431373     0.90699717     0.42564718
     0.28431373     0.94545871     0.42564718
     0.28431373     0.98392025     0.42564718
     0.30392157     0.02238179     0.42564718
     0.30392157     0.06084333     0.42564718
     0.30392157     0.09930487     0.42564718
     0.30392157     0.13776640     0.42564718
     0.30392157     0.17622794     0.42564718
     0.30392157     0.21468948     0.42564718
     0.30392157     0.25315102     0.42564718
     0.30392157     0.29161256     0.42564718
     0.30392157     0.33007410     0.42564718
     0.30392157     0.36853564     0.42564718
     0.30392157     0.40699717     0.42564718
     0.30392157     0.44545871     0.42564718
     0.30392157     0.48392025     0.42564718
     0.30392157     0.52238179     0.42564718
     0.30392157     0.56084333     0.42564718
     0.30392157     0.59930487     0.42564718
     0.30392157     0.63776640     0.42564718
     0.30392157     0.67622794     0.42564718
     0.30392157     0.71468948     0.42564718
     0.30392157     0.75315102     0.42564718
     0.30392157     0.79161256     0.42564718
     0.30392157     0.83007410     0.42564718
     0.30392157     0.86853564     0.42564718
     0.30392157     0.90699717     0.42564718
     0.30392157     0.94545871     0.42564718
     0.30392157     0.98392025     0.42564718
     0.32352941     0.02238179     0.42564718
     0.32352941     0.06084333     0.42564718
     0.32352941     0.09930487     0.42564718
     0.32352941     0.13776640     0.42564718
     0.32352941     0.17622794     0.42564718
     0.32352941     0.21468948     0.42564718
     0.32352941     0.25315102     0.42564718
     0.32352941     0.29161256     0.42564718
     0.32352941     0.33007410     0.42564718
     0.32352941     0.36853564     0.42564718
     0.32352941     0.40699717     0.42564718
     0.32352941     0.44545871     0.42564718
     0.32352941     0.48392025     0.42564718
     0.32352941     0.52238179     0.42564718
     0.32352941     0.56084333     0.42564718
     0.32352941     0.59930487     0.42564718
     0.32352941     0.63776640     0.42564718
     0.32352941     0.67622794     0.42564718
     0.32352941     0.71468948     0.42564718
     0.32352941     0.75315102     0.42564718
     0.32352941     0.79161256     0.42564718
     0.32352941     0.83007410     0.42564718
     0.32352941     0.86853564     0.42564718
     0.32352941     0.90699717     0.42564718
     0.32352941     0.94545871     0.42564718
     0.32352941     0.98392025     0.42564718
     0.34313725     0.02238179     0.42564718
     0.34313725     0.06084333     0.42564718
     0.34313725     0.09930487     0.42564718
     0.34313725     0.13776640     0.42564718
     0.34313725     0.17622794     0.42564718
     0.34313725     0.21468948     0.42564718
     0.34313725     0.25315102     0.42564718
     0.34313725     0.29161256     0.42564718
     0.34313725     0.33007410     0.42564718
     0.34313725     0.36853564     0.42564718
     0.34313725     0.40699717     0.42564718
     0.34313725     0.44545871     0.42564718
     0.34313725     0.48392025     0.42564718
     0.34313725     0.52238179     0.42564718
     0.34313725     0.56084333     0.42564718
     0.34313725     0.59930487     0.42564718
     0.34313725     0.63776640     0.42564718
     0.34313725     0.67622794     0.42564718
     0.34313725     0.71468948     0.42564718
     0.34313725     0.75315102     0.42564718
     0.34313725     0.79161256     0.42564718
     0.34313725     0.83007410     0.42564718
     0.34313725     0.86853564     0.42564718
     0.34313725     0.90699717     0.42564718
     0.34313725     0.94545871     0.42564718
     0.34313725     0.98392025     0.42564718
     0.36274510     0.02238179     0.42564718
     0.36274510     0.06084333     0.42564718
     0.36274510     0.09930487     0.42564718
     0.36274510     0.13776640     0.42564718
     0.36274510     0.17622794     0.42564718
     0.36274510     0.21468948     0.42564718
     0.36274510     0.25315102     0.42564718
     0.36274510     0.29161256     0.42564718
     0.36274510     0.33007410     0.42564718
     0.36274510     0.36853564     0.42564718
     0.36274510     0.40699717     0.42564718
     0.36274510     0.44545871     0.42564718
     0.36274510     0.48392025     0.42564718
     0.36274510     0.52238179     0.42564718
     0.36274510     0.56084333     0.42564718
     0.36274510     0.59930487     0.42564718
     0.36274510     0.63776640     0.42564718
     0.36274510     0.67622794     0.42564718
     0.36274510     0.71468948     0.42564718
     0.36274510     0.75315102     0.42564718
     0.36274510     0.79161256     0.42564718
     0.36274510     0.83007410     0.42564718
     0.36274510     0.86853564     0.42564718
     0.36274510     0.90699717     0.42564718
     0.36274510     0.94545871     0.42564718
     0.36274510     0.98392025     0.42564718
     0.38235294     0.02238179     0.42564718
     0.38235294     0.06084333     0.42564718
     0.38235294     0.09930487     0.42564718
     0.38235294     0.13776640     0.42564718
     0.38235294     0.17622794     0.42564718
     0.38235294     0.21468948     0.42564718
     0.38235294     0.25315102     0.42564718
     0.38235294     0.29161256     0.42564718
     0.38235294     0.33007410     0.42564718
     0.38235294     0.36853564     0.42564718
     0.38235294     0.40699717     0.42564718
     0.38235294     0.44545871     0.42564718
     0.38235294     0.48392025     0.42564718
     0.38235294     0.52238179     0.42564718
     0.38235294     0.56084333     0.42564718
     0.38235294     0.59930487     0.42564718
     0.38235294     0.63776640     0.42564718
     0.38235294     0.67622794     0.42564718
     0.38235294     0.71468948     0.42564718
     0.38235294     0.75315102     0.42564718
     0.38235294     0.79161256     0.42564718
     0.38235294     0.83007410     0.42564718
     0.38235294     0.86853564     0.42564718
     0.38235294     0.90699717     0.42564718
     0.38235294     0.94545871     0.42564718
     0.38235294     0.98392025     0.42564718
     0.40196078     0.02238179     0.42564718
     0.40196078     0.06084333     0.42564718
     0.40196078     0.09930487     0.42564718
     0.40196078     0.13776640     0.42564718
     0.40196078     0.17622794     0.42564718
     0.40196078     0.21468948     0.42564718
     0.40196078     0.25315102     0.42564718
     0.40196078     0.29161256     0.42564718
     0.40196078     0.33007410     0.42564718
     0.40196078     0.36853564     0.42564718
     0.40196078     0.40699717     0.42564718
     0.40196078     0.44545871     0.42564718
     0.40196078     0.48392025     0.42564718
     0.40196078     0.52238179     0.42564718
     0.40196078     0.56084333     0.42564718
     0.40196078     0.59930487     0.42564718
     0.40196078     0.63776640     0.42564718
     0.40196078     0.67622794     0.42564718
     0.40196078     0.71468948     0.42564718
     0.40196078     0.75315102     0.42564718
     0.40196078     0.79161256     0.42564718
     0.40196078     0.83007410     0.42564718
     0.40196078     0.86853564     0.42564718
     0.40196078     0.90699717     0.42564718
     0.40196078     0.94545871     0.42564718
     0.40196078     0.98392025     0.42564718
     0.42156863     0.02238179     0.42564718
     0.42156863     0.06084333     0.42564718
     0.42156863     0.09930487     0.42564718
     0.42156863     0.13776640     0.42564718
     0.42156863     0.17622794     0.42564718
     0.42156863     0.21468948     0.42564718
     0.42156863     0.25315102     0.42564718
     0.42156863     0.29161256     0.42564718
     0.42156863     0.33007410     0.42564718
     0.42156863     0.36853564     0.42564718
     0.42156863     0.40699717     0.42564718
     0.42156863     0.44545871     0.42564718
     0.42156863     0.48392025     0.42564718
     0.42156863     0.52238179     0.42564718
     0.42156863     0.56084333     0.42564718
     0.42156863     0.59930487     0.42564718
     0.42156863     0.63776640     0.42564718
     0.42156863     0.67622794     0.42564718
     0.42156863     0.71468948     0.42564718
     0.42156863     0.75315102     0.42564718
     0.42156863     0.79161256     0.42564718
     0.42156863     0.83007410     0.42564718
     0.42156863     0.86853564     0.42564718
     0.42156863     0.90699717     0.42564718
     0.42156863     0.94545871     0.42564718
     0.42156863     0.98392025     0.42564718
     0.44117647     0.02238179     0.42564718
     0.44117647     0.06084333     0.42564718
     0.44117647     0.09930487     0.42564718
     0.44117647     0.13776640     0.42564718
     0.44117647     0.17622794     0.42564718
     0.44117647     0.21468948     0.42564718
     0.44117647     0.25315102     0.42564718
     0.44117647     0.29161256     0.42564718
     0.44117647     0.33007410     0.42564718
     0.44117647     0.36853564     0.42564718
     0.44117647     0.40699717     0.42564718
     0.44117647     0.44545871     0.42564718
     0.44117647     0.48392025     0.42564718
     0.44117647     0.52238179     0.42564718
     0.44117647     0.56084333     0.42564718
     0.44117647     0.59930487     0.42564718
     0.44117647     0.63776640     0.42564718
     0.44117647     0.67622794     0.42564718
     0.44117647     0.71468948     0.42564718
     0.44117647     0.75315102     0.42564718
     0.44117647     0.79161256     0.42564718
     0.44117647     0.83007410     0.42564718
     0.44117647     0.86853564     0.42564718
     0.44117647     0.90699717     0.42564718
     0.44117647     0.94545871     0.42564718
     0.44117647     0.98392025     0.42564718
     0.46078431     0.02238179     0.42564718
     0.46078431     0.06084333     0.42564718
     0.46078431     0.09930487     0.42564718
     0.46078431     0.13776640     0.42564718
     0.46078431     0.17622794     0.42564718
     0.46078431     0.21468948     0.42564718
     0.46078431     0.25315102     0.42564718
     0.46078431     0.29161256     0.42564718
     0.46078431     0.33007410     0.42564718
     0.46078431     0.36853564     0.42564718
     0.46078431     0.40699717     0.42564718
     0.46078431     0.44545871     0.42564718
     0.46078431     0.48392025     0.42564718
     0.46078431     0.52238179     0.42564718
     0.46078431     0.56084333     0.42564718
     0.46078431     0.59930487     0.42564718
     0.46078431     0.63776640     0.42564718
     0.46078431     0.67622794     0.42564718
     0.46078431     0.71468948     0.42564718
     0.46078431     0.75315102     0.42564718
     0.46078431     0.79161256     0.42564718
     0.46078431     0.83007410     0.42564718
     0.46078431     0.86853564     0.42564718
     0.46078431     0.90699717     0.42564718
     0.46078431     0.94545871     0.42564718
     0.46078431     0.98392025     0.42564718
     0.48039216     0.02238179     0.42564718
     0.48039216     0.06084333     0.42564718
     0.48039216     0.09930487     0.42564718
     0.48039216     0.13776640     0.42564718
     0.48039216     0.17622794     0.42564718
     0.48039216     0.21468948     0.42564718
     0.48039216     0.25315102     0.42564718
     0.48039216     0.29161256     0.42564718
     0.48039216     0.33007410     0.42564718
     0.48039216     0.36853564     0.42564718
     0.48039216     0.40699717     0.42564718
     0.48039216     0.44545871     0.42564718
     0.48039216     0.48392025     0.42564718
     0.48039216     0.52238179     0.42564718
     0.48039216     0.56084333     0.42564718
     0.48039216     0.59930487     0.42564718
     0.48039216     0.63776640     0.42564718
     0.48039216     0.67622794     0.42564718
     0.48039216     0.71468948     0.42564718
     0.48039216     0.75315102     0.42564718
     0.48039216     0.79161256     0.42564718
     0.48039216     0.83007410     0.42564718
     0.48039216     0.86853564     0.42564718