Generated by Twist2D
    1.0
     128.58298576       0.00000000       0.00000000
       0.00000000      93.04021291       0.00000000
       0.00000000       0.00000000      20.00000000
    P
    6556
Direct
     0.01282051     0.02771079     0.42564718
     0.01282051     0.07532983     0.42564718
     0.01282051     0.12294888     0.42564718
     0.01282051     0.17056793     0.42564718
     0.01282051     0.21818698     0.42564718
     0.01282051     0.26580602     0.42564718
     0.01282051     0.31342507     0.42564718
     0.01282051     0.36104412     0.42564718
     0.01282051     0.40866317     0.42564718
     0.01282051     0.45628222     0.42564718
     0.01282051     0.50390126     0.42564718
     0.01282051     0.55152031     0.42564718
     0.01282051     0.59913936     0.42564718
     0.01282051     0.64675841     0.42564718
     0.01282051     0.69437745     0.42564718
     0.01282051     0.74199650     0.42564718
     0.01282051     0.78961555     0.42564718
     0.01282051     0.83723460     0.42564718
     0.01282051     0.88485364     0.42564718
     0.01282051     0.93247269     0.42564718
     0.01282051     0.98009174     0.42564718
     0.03846154     0.02771079     0.42564718
     0.03846154     0.07532983     0.42564718
     0.03846154     0.12294888     0.42564718
     0.03846154     0.17056793     0.42564718
     0.03846154     0.21818698     0.42564718
     0.03846154     0.26580602     0.42564718
     0.03846154     0.31342507     0.42564718
     0.03846154     0.36104412     0.42564718
     0.03846154     0.40866317     0.42564718
     0.03846154     0.45628222     0.42564718
     0.03846154     0.50390126     0.42564718
     0.03846154     0.55152031     0.42564718
     0.03846154     0.59913936     0.42564718
     0.03846154     0.64675841     0.42564718
     0.03846154     0.69437745     0.42564718
     0.03846154     0.74199650     0.42564718
     0.03846154     0.78961555     0.42564718
     0.03846154     0.83723460     0.42564718
     0.03846154     0.88485364     0.42564718
     0.03846154     0.93247269     0.42564718
     0.03846154     0.98009174     0.42564718
     0.06410256     0.02771079     0.42564718
     0.06410256     0.07532983     0.42564718
     0.06410256     0.12294888     0.42564718
     0.06410256     0.17056793     0.42564718
     0.06410256     0.21818698     0.42564718
     0.06410256     0.26580602     0.42564718
     0.06410256     0.31342507     0.42564718
     0.06410256     0.36104412     0.42564718
     0.06410256     0.40866317     0.42564718
     0.06410256     0.45628222     0.42564718
     0.06410256     0.50390126     0.42564718
     0.06410256     0.55152031     0.42564718
     0.06410256     0.59913936     0.42564718
     0.06410256     0.64675841     0.42564718
     0.06410256     0.69437745     0.42564718
     0.06410256     0.74199650     0.42564718
     0.06410256     0.78961555     0.42564718
     0.06410256     0.83723460     0.42564718
     0.06410256     0.88485364     0.42564718
     0.06410256     0.93247269     0.42564718
     0.06410256     0.98009174     0.42564718
     0.08974359     0.02771079     0.42564718
     0.08974359     0.07532983     0.42564718
     0.08974359     0.12294888     0.42564718
     0.08974359     0.17056793     0.42564718
     0.08974359     0.21818698     0.42564718
     0.08974359     0.26580602     0.42564718
     0.08974359     0.31342507     0.42564718
     0.08974359     0.36104412     0.42564718
     0.08974359     0.40866317     0.42564718
     0.08974359     0.45628222     0.42564718
     0.08974359     0.50390126     0.42564718
     0.08974359     0.55152031     0.42564718
     0.08974359     0.59913936     0.42564718
     0.08974359     0.64675841     0.42564718
     0.08974359     0.69437745     0.42564718
     0.08974359     0.74199650     0.42564718
     0.08974359     0.78961555     0.42564718
     0.08974359     0.83723460     0.42564718
     0.08974359     0.88485364     0.42564718
     0.08974359     0.93247269     0.42564718
     0.08974359     0.98009174     0.42564718
     0.11538462     0.02771079     0.42564718
     0.11538462     0.07532983     0.42564718
     0.11538462     0.12294888     0.42564718
     0.11538462     0.17056793     0.42564718
     0.11538462     0.21818698     0.42564718
     0.11538462     0.26580602     0.42564718
     0.11538462     0.31342507     0.42564718
     0.11538462     0.36104412     0.42564718
     0.11538462     0.40866317     0.42564718
     0.11538462     0.45628222     0.42564718
     0.11538462     0.50390126     0.42564718
     0.11538462     0.55152031     0.42564718
     0.11538462     0.59913936     0.42564718
     0.11538462     0.64675841     0.42564718
     0.11538462     0.69437745     0.42564718
     0.11538462     0.74199650     0.42564718
     0.11538462     0.78961555     0.42564718
     0.11538462     0.83723460     0.42564718
     0.11538462     0.88485364     0.42564718
     0.11538462     0.93247269     0.42564718
     0.11538462     0.98009174     0.42564718
     0.14102564     0.02771079     0.42564718
     0.14102564     0.07532983     0.42564718
     0.14102564     0.12294888     0.42564718
     0.14102564     0.17056793     0.42564718
     0.14102564     0.21818698     0.42564718
     0.14102564     0.26580602     0.42564718
     0.14102564     0.31342507     0.42564718
     0.14102564     0.36104412     0.42564718
     0.14102564     0.40866317     0.42564718
     0.14102564     0.45628222     0.42564718
     0.14102564     0.50390126     0.42564718
     0.14102564     0.55152031     0.42564718
     0.14102564     0.59913936     0.42564718
     0.14102564     0.64675841     0.42564718
     0.14102564     0.69437745     0.42564718
     0.14102564     0.74199650     0.42564718
     0.14102564     0.78961555     0.42564718
     0.14102564     0.83723460     0.42564718
     0.14102564     0.88485364     0.42564718
     0.14102564     0.93247269     0.42564718
     0.14102564     0.98009174     0.42564718
     0.16666667     0.02771079     0.42564718
     0.16666667     0.07532983     0.42564718
     0.16666667     0.12294888     0.42564718
     0.16666667     0.17056793     0.42564718
     0.16666667     0.21818698     0.42564718
     0.16666667     0.26580602     0.42564718
     0.16666667     0.31342507     0.42564718
     0.16666667     0.36104412     0.42564718
     0.16666667     0.40866317     0.42564718
     0.16666667     0.45628222     0.42564718
     0.16666667     0.50390126     0.42564718
     0.16666667     0.55152031     0.42564718
     0.16666667     0.59913936     0.42564718
     0.16666667     0.64675841     0.42564718
     0.16666667     0.69437745     0.42564718
     0.16666667     0.74199650     0.42564718
     0.16666667     0.78961555     0.42564718
     0.16666667     0.83723460     0.42564718
     0.16666667     0.88485364     0.42564718
     0.16666667     0.93247269     0.42564718
     0.16666667     0.98009174     0.42564718
     0.19230769     0.02771079     0.42564718
     0.19230769     0.07532983     0.42564718
     0.19230769     0.12294888     0.42564718
     0.19230769     0.17056793     0.42564718
     0.19230769     0.21818698     0.42564718
     0.19230769     0.26580602     0.42564718
     0.19230769     0.31342507     0.42564718
     0.19230769     0.36104412     0.42564718
     0.19230769     0.40866317     0.42564718
     0.19230769     0.45628222     0.42564718
     0.19230769     0.50390126     0.42564718
     0.19230769     0.55152031     0.42564718
     0.19230769     0.59913936     0.42564718
     0.19230769     0.64675841     0.42564718
     0.19230769     0.69437745     0.42564718
     0.19230769     0.74199650     0.42564718
     0.19230769     0.78961555     0.42564718
     0.19230769     0.83723460     0.42564718
     0.19230769     0.88485364     0.42564718
     0.19230769     0.93247269     0.42564718
     0.19230769     0.98009174     0.42564718
     0.21794872     0.02771079     0.42564718
     0.21794872     0.07532983     0.42564718
     0.21794872     0.12294888     0.42564718
     0.21794872     0.17056793     0.42564718
     0.21794872     0.21818698     0.42564718
     0.21794872     0.26580602     0.42564718
     0.21794872     0.31342507     0.42564718
     0.21794872     0.36104412     0.42564718
     0.21794872     0.40866317     0.42564718
     0.21794872     0.45628222     0.42564718
     0.21794872     0.50390126     0.42564718
     0.21794872     0.55152031     0.42564718
     0.21794872     0.59913936     0.42564718
     0.21794872     0.64675841     0.42564718
     0.21794872     0.69437745     0.42564718
     0.21794872     0.74199650     0.42564718
     0.21794872     0.78961555     0.42564718
     0.21794872     0.83723460     0.42564718
     0.21794872     0.88485364     0.42564718
     0.21794872     0.93247269     0.42564718
     0.21794872     0.98009174     0.42564718
     0.24358974     0.02771079     0.42564718
     0.24358974     0.07532983     0.42564718
     0.24358974     0.12294888     0.42564718
     0.24358974     0.17056793     0.42564718
     0.24358974     0.21818698     0.42564718
     0.24358974     0.26580602     0.42564718
     0.24358974     0.31342507     0.42564718
     0.24358974     0.36104412     0.42564718
     0.24358974     0.40866317     0.42564718
     0.24358974     0.45628222     0.42564718
     0.24358974     0.50390126     0.42564718
     0.24358974     0.55152031     0.42564718
     0.24358974     0.59913936     0.42564718
     0.24358974     0.64675841     0.42564718
     0.24358974     0.69437745     0.42564718
     0.24358974     0.74199650     0.42564718
     0.24358974     0.78961555     0.42564718
     0.24358974     0.83723460     0.42564718
     0.24358974     0.88485364     0.42564718
     0.24358974     0.93247269     0.42564718
     0.24358974     0.98009174     0.42564718
     0.26923077     0.02771079     0.42564718
     0.26923077     0.07532983     0.42564718
     0.26923077     0.12294888     0.42564718
     0.26923077     0.17056793     0.42564718
     0.26923077     0.21818698     0.42564718
     0.26923077     0.26580602     0.42564718
     0.26923077     0.31342507     0.42564718
     0.26923077     0.36104412     0.42564718
     0.26923077     0.40866317     0.42564718
     0.26923077     0.45628222     0.42564718
     0.26923077     0.50390126     0.42564718
     0.26923077     0.55152031     0.42564718
     0.26923077     0.59913936     0.42564718
     0.26923077     0.64675841     0.42564718
     0.26923077     0.69437745     0.42564718
     0.26923077     0.74199650     0.42564718
     0.26923077     0.78961555     0.42564718
     0.26923077     0.83723460     0.42564718
     0.26923077     0.88485364     0.42564718
     0.26923077     0.93247269     0.42564718
     0.26923077     0.98009174     0.42564718
     0.29487179     0.02771079     0.42564718
     0.29487179     0.07532983     0.42564718
     0.29487179     0.12294888     0.42564718
     0.29487179     0.17056793     0.42564718
     0.29487179     0.21818698     0.42564718
     0.29487179     0.26580602     0.42564718
     0.29487179     0.31342507     0.42564718
     0.29487179     0.36104412     0.42564718
     0.29487179     0.40866317     0.42564718
     0.29487179     0.45628222     0.42564718
     0.29487179     0.50390126     0.42564718
     0.29487179     0.55152031     0.42564718
     0.29487179     0.59913936     0.42564718
     0.29487179     0.64675841     0.42564718
     0.29487179     0.69437745     0.42564718
     0.29487179     0.74199650     0.42564718
     0.29487179     0.78961555     0.42564718
     0.29487179     0.83723460     0.42564718
     0.29487179     0.88485364     0.42564718
     0.29487179     0.93247269     0.42564718
     0.29487179     0.98009174     0.42564718
     0.32051282     0.02771079     0.42564718
     0.32051282     0.07532983     0.42564718
     0.32051282     0.12294888     0.42564718
     0.32051282     0.17056793     0.42564718
     0.32051282     0.21818698     0.42564718
     0.32051282     0.26580602     0.42564718
     0.32051282     0.31342507     0.42564718
     0.32051282     0.36104412     0.42564718
     0.32051282     0.40866317     0.42564718
     0.32051282     0.45628222     0.42564718
     0.32051282     0.50390126     0.42564718
     0.32051282     0.55152031     0.42564718
     0.32051282     0.59913936     0.42564718
     0.32051282     0.64675841     0.42564718
     0.32051282     0.69437745     0.42564718
     0.32051282     0.74199650     0.42564718
     0.32051282     0.78961555     0.42564718
     0.32051282     0.83723460     0.42564718
     0.32051282     0.88485364     0.42564718
     0.32051282     0.93247269     0.42564718
     0.32051282     0.98009174     0.42564718
     0.34615385     0.02771079     0.42564718
     0.34615385     0.07532983     0.42564718
     0.34615385     0.12294888     0.42564718
     0.34615385     0.17056793     0.42564718
     0.34615385     0.21818698     0.42564718
     0.34615385     0.26580602     0.42564718
     0.34615385     0.31342507     0.42564718
     0.34615385     0.36104412     0.42564718
     0.34615385     0.40866317     0.42564718
     0.34615385     0.45628222     0.42564718
     0.34615385     0.50390126     0.42564718
     0.34615385     0.55152031     0.42564718
     0.34615385     0.59913936     0.42564718
     0.34615385     0.64675841     0.42564718
     0.34615385     0.69437745     0.42564718
     0.34615385     0.74199650     0.42564718
     0.34615385     0.78961555     0.42564718
     0.34615385     0.83723460     0.42564718
     0.34615385     0.88485364     0.42564718
     0.34615385     0.93247269     0.42564718
     0.34615385     0.98009174     0.42564718
     0.37179487     0.02771079     0.42564718
     0.37179487     0.07532983     0.42564718
     0.37179487     0.12294888     0.42564718
     0.37179487     0.17056793     0.42564718
     0.37179487     0.21818698     0.42564718
     0.37179487     0.26580602     0.42564718
     0.37179487     0.31342507     0.42564718
     0.37179487     0.36104412     0.42564718
     0.37179487     0.40866317     0.42564718
     0.37179487     0.45628222     0.42564718
     0.37179487     0.50390126     0.42564718
     0.37179487     0.55152031     0.42564718
     0.37179487     0.59913936     0.42564718
     0.37179487     0.64675841     0.42564718
     0.37179487     0.69437745     0.42564718
     0.37179487     0.74199650     0.42564718
     0.37179487     0.78961555     0.42564718
     0.37179487     0.83723460     0.42564718
     0.37179487     0.88485364     0.42564718
     0.37179487     0.93247269     0.42564718
     0.37179487     0.98009174     0.42564718
     0.39743590     0.02771079     0.42564718
     0.39743590     0.07532983     0.42564718
     0.39743590     0.12294888     0.42564718
     0.39743590     0.17056793     0.42564718
     0.39743590     0.21818698     0.42564718
     0.39743590     0.26580602     0.42564718
     0.39743590     0.31342507     0.42564718
     0.39743590     0.36104412     0.42564718
     0.39743590     0.40866317     0.42564718
     0.39743590     0.45628222     0.42564718
     0.39743590     0.50390126     0.42564718
     0.39743590     0.55152031     0.42564718
     0.39743590     0.59913936     0.42564718
     0.39743590     0.64675841     0.42564718
     0.39743590     0.69437745     0.42564718
     0.39743590     0.74199650     0.42564718
     0.39743590     0.78961555     0.42564718
     0.39743590     0.83723460     0.42564718
     0.39743590     0.88485364     0.42564718
     0.39743590     0.93247269     0.42564718
     0.39743590     0.98009174     0.42564718
     0.42307692     0.02771079     0.42564718
     0.42307692     0.07532983     0.42564718
     0.42307692     0.12294888     0.42564718
     0.42307692     0.17056793     0.42564718
     0.42307692     0.21818698     0.42564718
     0.42307692     0.26580602     0.42564718
     0.42307692     0.31342507     0.42564718
     0.42307692     0.36104412     0.42564718
     0.42307692     0.40866317     0.42564718
     0.42307692     0.45628222     0.42564718
     0.42307692     0.50390126     0.42564718
     0.42307692     0.55152031     0.42564718
     0.42307692     0.59913936     0.42564718
     0.42307692     0.64675841     0.42564718
     0.42307692     0.69437745     0.42564718
     0.42307692     0.74199650     0.42564718
     0.42307692     0.78961555     0.42564718
     0.42307692     0.83723460     0.42564718
     0.42307692     0.88485364     0.42564718
     0.42307692     0.93247269     0.42564718
     0.42307692     0.98009174     0.42564718
     0.44871795     0.02771079     0.42564718
     0.44871795     0.07532983     0.42564718
     0.44871795     0.12294888     0.42564718
     0.44871795     0.17056793     0.42564718
     0.44871795     0.21818698     0.42564718
     0.44871795     0.26580602     0.42564718
     0.44871795     0.31342507     0.42564718
     0.44871795     0.36104412     0.42564718
     0.44871795     0.40866317     0.42564718
     0.44871795     0.45628222     0.42564718
     0.44871795     0.50390126     0.42564718
     0.44871795     0.55152031     0.42564718
     0.44871795     0.59913936     0.42564718
     0.44871795     0.64675841     0.42564718
     0.44871795     0.69437745     0.42564718
     0.44871795     0.74199650     0.42564718
     0.44871795     0.78961555     0.42564718
     0.44871795     0.83723460     0.42564718
     0.44871795     0.88485364     0.42564718
     0.44871795     0.93247269     0.42564718
     0.44871795     0.98009174     0.42564718
     0.47435897     0.02771079     0.42564718
     0.47435897     0.07532983     0.42564718
     0.47435897     0.12294888     0.42564718
     0.47435897     0.17056793     0.42564718
     0.47435897     0.21818698     0.42564718
     0.47435897     0.26580602     0.42564718
     0.47435897     0.31342507     0.42564718
     0.47435897     0.36104412     0.42564718
     0.47435897     0.40866317     0.42564718
     0.47435897     0.45628222     0.42564718
     0.47435897     0.50390126     0.42564718
     0.47435897     0.55152031     0.42564718
     0.47435897     0.59913936     0.42564718
     0.47435897     0.64675841     0.42564718
     0.47435897     0.69437745     0.42564718
     0.47435897     0.74199650     0.42564718
     0.47435897     0.78961555     0.42564718
     0.47435897     0.83723460     0.42564718
     0.47435897     0.88485364     0.42564718
     0.47435897     0.93247269     0.42564718
     0.47435897     0.98009174     0.42564718
     0.50000000     0.02771079     0.42564718
     0.50000000     0.07532983     0.42564718
     0.50000000     0.12294888     0.42564718
     0.50000000     0.17056793     0.42564718
     0.50000000     0.21818698     0.42564718
     0.50000000     0.26580602     0.42564718
     0.50000000     0.31342507     0.42564718
     0.50000000     0.36104412     0.42564718
     0.50000000     0.40866317     0.42564718
     0.50000000     0.45628222     0.42564718
     0.50000000     0.50390126     0.42564718
     0.50000000     0.55152031     0.42564718
     0.50000000     0.59913936     0.42564718
     0.50000000     0.64675841     0.42564718
     0.50000000     0.69437745     0.42564718
     0.50000000     0.74199650     0.42564718
     0.50000000     0.78961555     0.42564718
     0.50000000     0.83723460     0.42564718
     0.50000000     0.88485364     0.42564718
     0.50000000     0.93247269     0.42564718
     0.50000000     0.98009174     0.42564718
     0.52564103     0.02771079     0.42564718
     0.52564103     0.07532983     0.42564718
     0.52564103     0.12294888     0.42564718
     0.52564103     0.17056793     0.42564718
     0.52564103     0.21818698     0.42564718
     0.52564103     0.26580602     0.42564718
     0.52564103     0.31342507     0.42564718
     0.52564103     0.36104412     0.42564718
     0.52564103     0.40866317     0.42564718
     0.52564103     0.45628222     0.42564718
     0.52564103     0.50390126     0.42564718
     0.52564103     0.55152031     0.42564718
     0.52564103     0.59913936     0.42564718
     0.52564103     0.64675841     0.42564718
     0.52564103     0.69437745     0.42564718
     0.52564103     0.74199650     0.42564718
     0.52564103     0.78961555     0.42564718
     0.52564103     0.83723460     0.42564718
     0.52564103     0.88485364     0.42564718
     0.52564103     0.93247269     0.42564718
     0.52564103     0.98009174     0.42564718
     0.55128205     0.02771079     0.42564718
     0.55128205     0.07532983     0.42564718
     0.55128205     0.12294888     0.42564718
     0.55128205     0.17056793     0.42564718
     0.55128205     0.21818698     0.42564718
     0.55128205     0.26580602     0.42564718
     0.55128205     0.31342507     0.42564718
     0.55128205     0.36104412     0.42564718
     0.55128205     0.40866317     0.42564718
     0.55128205     0.45628222     0.42564718
     0.55128205     0.50390126     0.42564718
     0.55128205     0.55152031     0.42564718
     0.55128205     0.59913936     0.42564718
     0.55128205     0.64675841     0.42564718
     0.55128205     0.69437745     0.42564718
     0.55128205     0.74199650     0.42564718
     0.55128205     0.78961555     0.42564718
     0.55128205     0.83723460     0.42564718
     0.55128205     0.88485364     0.42564718
     0.55128205     0.93247269     0.42564718
     0.55128205     0.98009174     0.42564718
     0.57692308     0.02771079     0.42564718
     0.57692308     0.07532983     0.42564718
     0.57692308     0.12294888     0.42564718
     0.57692308     0.17056793     0.42564718
     0.57692308     0.21818698     0.42564718
     0.57692308     0.26580602     0.42564718
     0.57692308     0.31342507     0.42564718
     0.57692308     0.36104412     0.42564718
     0.57692308     0.40866317     0.42564718
     0.57692308     0.45628222     0.42564718
     0.57692308     0.50390126     0.42564718
     0.57692308     0.55152031     0.42564718
     0.57692308     0.59913936     0.42564718
     0.57692308     0.64675841     0.42564718
     0.57692308     0.69437745     0.42564718
     0.57692308     0.74199650     0.42564718
     0.57692308     0.78961555     0.42564718
     0.57692308     0.83723460     0.42564718
     0.57692308     0.88485364     0.42564718
     0.57692308     0.93247269     0.42564718
     0.57692308     0.98009174     0.42564718
     0.60256410     0.02771079     0.42564718
     0.60256410     0.07532983     0.42564718
     0.60256410     0.12294888     0.42564718
     0.60256410     0.17056793     0.42564718
     0.60256410     0.21818698     0.42564718
     0.60256410     0.26580602     0.42564718
     0.60256410     0.31342507     0.42564718
     0.60256410     0.36104412     0.42564718
     0.60256410     0.40866317     0.42564718
     0.60256410     0.45628222     0.42564718
     0.60256410     0.50390126     0.42564718
     0.60256410     0.55152031     0.42564718
     0.60256410     0.59913936     0.42564718
     0.60256410     0.64675841     0.42564718
     0.60256410     0.69437745     0.42564718
     0.60256410     0.74199650     0.42564718
     0.60256410     0.78961555     0.42564718
     0.60256410     0.83723460     0.42564718
     0.60256410     0.88485364     0.42564718
     0.60256410     0.93247269     0.42564718
     0.60256410     0.98009174     0.42564718
     0.62820513     0.02771079     0.42564718
     0.62820513     0.07532983     0.42564718
     0.62820513     0.12294888     0.42564718
     0.62820513     0.17056793     0.42564718
     0.62820513     0.21818698     0.42564718
     0.62820513     0.26580602     0.42564718
     0.62820513     0.31342507     0.42564718
     0.62820513     0.36104412     0.42564718
     0.62820513     0.40866317     0.42564718
     0.62820513     0.45628222     0.42564718
     0.62820513     0.50390126     0.42564718
     0.62820513     0.55152031     0.42564718
     0.62820513     0.59913936     0.42564718
     0.62820513     0.64675841     0.42564718
     0.62820513     0.69437745     0.42564718
     0.62820513     0.74199650     0.42564718
     0.62820513     0.78961555     0.42564718
     0.62820513     0.83723460     0.42564718
     0.62820513     0.88485364     0.42564718
     0.62820513     0.93247269     0.42564718
     0.62820513     0.98009174     0.42564718
     0.65384615     0.02771079     0.42564718
     0.65384615     0.07532983     0.42564718
     0.65384615     0.12294888     0.42564718
     0.65384615     0.17056793     0.42564718
     0.65384615     0.21818698     0.42564718
     0.65384615     0.26580602     0.42564718
     0.65384615     0.31342507     0.42564718
     0.65384615     0.36104412     0.42564718
     0.65384615     0.40866317     0.42564718
     0.65384615     0.45628222     0.42564718
     0.65384615     0.50390126     0.42564718
     0.65384615     0.55152031     0.42564718
     0.65384615     0.59913936     0.42564718
     0.65384615     0.64675841     0.42564718
     0.65384615     0.69437745     0.42564718
     0.65384615     0.74199650     0.42564718
     0.65384615     0.78961555     0.42564718
     0.65384615     0.83723460     0.42564718
     0.65384615     0.88485364     0.42564718
     0.65384615     0.93247269     0.42564718
     0.65384615     0.98009174     0.42564718
     0.67948718     0.02771079     0.42564718
     0.67948718     0.07532983     0.42564718
     0.67948718     0.12294888     0.42564718
     0.67948718     0.17056793     0.42564718
     0.67948718     0.21818698     0.42564718
     0.67948718     0.26580602     0.42564718
     0.67948718     0.31342507     0.42564718
     0.67948718     0.36104412     0.42564718
     0.67948718     0.40866317     0.42564718
     0.67948718     0.45628222     0.42564718
     0.67948718     0.50390126     0.42564718
     0.67948718     0.55152031     0.42564718
     0.67948718     0.59913936     0.42564718
     0.67948718     0.64675841     0.42564718
     0.67948718     0.69437745     0.42564718
     0.67948718     0.74199650     0.42564718
     0.67948718     0.78961555     0.42564718
     0.67948718     0.83723460     0.42564718
     0.67948718     0.88485364     0.42564718
     0.67948718     0.93247269     0.42564718
     0.67948718     0.98009174     0.42564718
     0.70512821     0.02771079     0.42564718
     0.70512821     0.07532983     0.42564718
     0.70512821     0.12294888     0.42564718
     0.70512821     0.17056793     0.42564718
     0.70512821     0.21818698     0.42564718
     0.70512821     0.26580602     0.42564718
     0.70512821     0.31342507     0.42564718
     0.70512821     0.36104412     0.42564718
     0.70512821     0.40866317     0.42564718
     0.70512821     0.45628222     0.42564718
     0.70512821     0.50390126     0.42564718
     0.70512821     0.55152031     0.42564718
     0.70512821     0.59913936     0.42564718
     0.70512821     0.64675841     0.42564718
     0.70512821     0.69437745     0.42564718
     0.70512821     0.74199650     0.42564718
     0.70512821     0.78961555     0.42564718
     0.70512821     0.83723460     0.42564718
     0.70512821     0.88485364     0.42564718
     0.70512821     0.93247269     0.42564718
     0.70512821     0.98009174     0.42564718
     0.73076923     0.02771079     0.42564718
     0.73076923     0.07532983     0.42564718
     0.73076923     0.12294888     0.42564718
     0.73076923     0.17056793     0.42564718
     0.73076923     0.21818698     0.42564718
     0.73076923     0.26580602     0.42564718
     0.73076923     0.31342507     0.42564718
     0.73076923     0.36104412     0.42564718
     0.73076923     0.40866317     0.42564718
     0.73076923     0.45628222     0.42564718
     0.73076923     0.50390126     0.42564718
     0.73076923     0.55152031     0.42564718
     0.73076923     0.59913936     0.42564718
     0.73076923     0.64675841     0.42564718
     0.73076923     0.69437745     0.42564718
     0.73076923     0.74199650     0.42564718
     0.73076923     0.78961555     0.42564718
     0.73076923     0.83723460     0.42564718
     0.73076923     0.88485364     0.42564718
     0.73076923     0.93247269     0.42564718
     0.73076923     0.98009174     0.42564718
     0.75641026     0.02771079     0.42564718
     0.75641026     0.07532983     0.42564718
     0.75641026     0.12294888     0.42564718
     0.75641026     0.17056793     0.42564718
     0.75641026     0.21818698     0.42564718
     0.75641026     0.26580602     0.42564718
     0.75641026     0.31342507     0.42564718
     0.75641026     0.36104412     0.42564718
     0.75641026     0.40866317     0.42564718
     0.75641026     0.45628222     0.42564718
     0.75641026     0.50390126     0.42564718
     0.75641026     0.55152031     0.42564718
     0.75641026     0.59913936     0.42564718
     0.75641026     0.64675841     0.42564718
     0.75641026     0.69437745     0.42564718
     0.75641026     0.74199650     0.42564718
     0.75641026     0.78961555     0.42564718
     0.75641026     0.83723460     0.42564718
     0.75641026     0.88485364     0.42564718
     0.75641026     0.93247269     0.42564718
     0.75641026     0.98009174     0.42564718
     0.78205128     0.02771079     0.42564718
     0.78205128     0.07532983     0.42564718
     0.78205128     0.12294888     0.42564718
     0.78205128     0.17056793     0.42564718
     0.78205128     0.21818698     0.42564718
     0.78205128     0.26580602     0.42564718
     0.78205128     0.31342507     0.42564718
     0.78205128     0.36104412     0.42564718
     0.78205128     0.40866317     0.42564718
     0.78205128     0.45628222     0.42564718
     0.78205128     0.50390126     0.42564718
     0.78205128     0.55152031     0.42564718
     0.78205128     0.59913936     0.42564718
     0.78205128     0.64675841     0.42564718
     0.78205128     0.69437745     0.42564718
     0.78205128     0.74199650     0.42564718
     0.78205128     0.78961555     0.42564718