Generated by Twist2D
    1.0
     161.55298211       0.00000000       0.00000000
       0.00000000     124.05361721       0.00000000
       0.00000000       0.00000000      20.00000000
    P
    10980
Direct
     0.01020408     0.02078309     0.42564718
     0.01020408     0.05649738     0.42564718
     0.01020408     0.09221166     0.42564718
     0.01020408     0.12792595     0.42564718
     0.01020408     0.16364023     0.42564718
     0.01020408     0.19935452     0.42564718
     0.01020408     0.23506880     0.42564718
     0.01020408     0.27078309     0.42564718
     0.01020408     0.30649738     0.42564718
     0.01020408     0.34221166     0.42564718
     0.01020408     0.37792595     0.42564718
     0.01020408     0.41364023     0.42564718
     0.01020408     0.44935452     0.42564718
     0.01020408     0.48506880     0.42564718
     0.01020408     0.52078309     0.42564718
     0.01020408     0.55649738     0.42564718
     0.01020408     0.59221166     0.42564718
     0.01020408     0.62792595     0.42564718
     0.01020408     0.66364023     0.42564718
     0.01020408     0.69935452     0.42564718
     0.01020408     0.73506880     0.42564718
     0.01020408     0.77078309     0.42564718
     0.01020408     0.80649738     0.42564718
     0.01020408     0.84221166     0.42564718
     0.01020408     0.87792595     0.42564718
     0.01020408     0.91364023     0.42564718
     0.01020408     0.94935452     0.42564718
     0.01020408     0.98506880     0.42564718
     0.03061224     0.02078309     0.42564718
     0.03061224     0.05649738     0.42564718
     0.03061224     0.09221166     0.42564718
     0.03061224     0.12792595     0.42564718
     0.03061224     0.16364023     0.42564718
     0.03061224     0.19935452     0.42564718
     0.03061224     0.23506880     0.42564718
     0.03061224     0.27078309     0.42564718
     0.03061224     0.30649738     0.42564718
     0.03061224     0.34221166     0.42564718
     0.03061224     0.37792595     0.42564718
     0.03061224     0.41364023     0.42564718
     0.03061224     0.44935452     0.42564718
     0.03061224     0.48506880     0.42564718
     0.03061224     0.52078309     0.42564718
     0.03061224     0.55649738     0.42564718
     0.03061224     0.59221166     0.42564718
     0.03061224     0.62792595     0.42564718
     0.03061224     0.66364023     0.42564718
     0.03061224     0.69935452     0.42564718
     0.03061224     0.73506880     0.42564718
     0.03061224     0.77078309     0.42564718
     0.03061224     0.80649738     0.42564718
     0.03061224     0.84221166     0.42564718
     0.03061224     0.87792595     0.42564718
     0.03061224     0.91364023     0.42564718
     0.03061224     0.94935452     0.42564718
     0.03061224     0.98506880     0.42564718
     0.05102041     0.02078309     0.42564718
     0.05102041     0.05649738     0.42564718
     0.05102041     0.09221166     0.42564718
     0.05102041     0.12792595     0.42564718
     0.05102041     0.16364023     0.42564718
     0.05102041     0.19935452     0.42564718
     0.05102041     0.23506880     0.42564718
     0.05102041     0.27078309     0.42564718
     0.05102041     0.30649738     0.42564718
     0.05102041     0.34221166     0.42564718
     0.05102041     0.37792595     0.42564718
     0.05102041     0.41364023     0.42564718
     0.05102041     0.44935452     0.42564718
     0.05102041     0.48506880     0.42564718
     0.05102041     0.52078309     0.42564718
     0.05102041     0.55649738     0.42564718
     0.05102041     0.59221166     0.42564718
     0.05102041     0.62792595     0.42564718
     0.05102041     0.66364023     0.42564718
     0.05102041     0.69935452     0.42564718
     0.05102041     0.73506880     0.42564718
     0.05102041     0.77078309     0.42564718
     0.05102041     0.80649738     0.42564718
     0.05102041     0.84221166     0.42564718
     0.05102041     0.87792595     0.42564718
     0.05102041     0.91364023     0.42564718
     0.05102041     0.94935452     0.42564718
     0.05102041     0.98506880     0.42564718
     0.07142857     0.02078309     0.42564718
     0.07142857     0.05649738     0.42564718
     0.07142857     0.09221166     0.42564718
     0.07142857     0.12792595     0.42564718
     0.07142857     0.16364023     0.42564718
     0.07142857     0.19935452     0.42564718
     0.07142857     0.23506880     0.42564718
     0.07142857     0.27078309     0.42564718
     0.07142857     0.30649738     0.42564718
     0.07142857     0.34221166     0.42564718
     0.07142857     0.37792595     0.42564718
     0.07142857     0.41364023     0.42564718
     0.07142857     0.44935452     0.42564718
     0.07142857     0.48506880     0.42564718
     0.07142857     0.52078309     0.42564718
     0.07142857     0.55649738     0.42564718
     0.07142857     0.59221166     0.42564718
     0.07142857     0.62792595     0.42564718
     0.07142857     0.66364023     0.42564718
     0.07142857     0.69935452     0.42564718
     0.07142857     0.73506880     0.42564718
     0.07142857     0.77078309     0.42564718
     0.07142857     0.80649738     0.42564718
     0.07142857     0.84221166     0.42564718
     0.07142857     0.87792595     0.42564718
     0.07142857     0.91364023     0.42564718
     0.07142857     0.94935452     0.42564718
     0.07142857     0.98506880     0.42564718
     0.09183673     0.02078309     0.42564718
     0.09183673     0.05649738     0.42564718
     0.09183673     0.09221166     0.42564718
     0.09183673     0.12792595     0.42564718
     0.09183673     0.16364023     0.42564718
     0.09183673     0.19935452     0.42564718
     0.09183673     0.23506880     0.42564718
     0.09183673     0.27078309     0.42564718
     0.09183673     0.30649738     0.42564718
     0.09183673     0.34221166     0.42564718
     0.09183673     0.37792595     0.42564718
     0.09183673     0.41364023     0.42564718
     0.09183673     0.44935452     0.42564718
     0.09183673     0.48506880     0.42564718
     0.09183673     0.52078309     0.42564718
     0.09183673     0.55649738     0.42564718
     0.09183673     0.59221166     0.42564718
     0.09183673     0.62792595     0.42564718
     0.09183673     0.66364023     0.42564718
     0.09183673     0.69935452     0.42564718
     0.09183673     0.73506880     0.42564718
     0.09183673     0.77078309     0.42564718
     0.09183673     0.80649738     0.42564718
     0.09183673     0.84221166     0.42564718
     0.09183673     0.87792595     0.42564718
     0.09183673     0.91364023     0.42564718
     0.09183673     0.94935452     0.42564718
     0.09183673     0.98506880     0.42564718
     0.11224490     0.02078309     0.42564718
     0.11224490     0.05649738     0.42564718
     0.11224490     0.09221166     0.42564718
     0.11224490     0.12792595     0.42564718
     0.11224490     0.16364023     0.42564718
     0.11224490     0.19935452     0.42564718
     0.11224490     0.23506880     0.42564718
     0.11224490     0.27078309     0.42564718
     0.11224490     0.30649738     0.42564718
     0.11224490     0.34221166     0.42564718
     0.11224490     0.37792595     0.42564718
     0.11224490     0.41364023     0.42564718
     0.11224490     0.44935452     0.42564718
     0.11224490     0.48506880     0.42564718
     0.11224490     0.52078309     0.42564718
     0.11224490     0.55649738     0.42564718
     0.11224490     0.59221166     0.42564718
     0.11224490     0.62792595     0.42564718
     0.11224490     0.66364023     0.42564718
     0.11224490     0.69935452     0.42564718
     0.11224490     0.73506880     0.42564718
     0.11224490     0.77078309     0.42564718
     0.11224490     0.80649738     0.42564718
     0.11224490     0.84221166     0.42564718
     0.11224490     0.87792595     0.42564718
     0.11224490     0.91364023     0.42564718
     0.11224490     0.94935452     0.42564718
     0.11224490     0.98506880     0.42564718
     0.13265306     0.02078309     0.42564718
     0.13265306     0.05649738     0.42564718
     0.13265306     0.09221166     0.42564718
     0.13265306     0.12792595     0.42564718
     0.13265306     0.16364023     0.42564718
     0.13265306     0.19935452     0.42564718
     0.13265306     0.23506880     0.42564718
     0.13265306     0.27078309     0.42564718
     0.13265306     0.30649738     0.42564718
     0.13265306     0.34221166     0.42564718
     0.13265306     0.37792595     0.42564718
     0.13265306     0.41364023     0.42564718
     0.13265306     0.44935452     0.42564718
     0.13265306     0.48506880     0.42564718
     0.13265306     0.52078309     0.42564718
     0.13265306     0.55649738     0.42564718
     0.13265306     0.59221166     0.42564718
     0.13265306     0.62792595     0.42564718
     0.13265306     0.66364023     0.42564718
     0.13265306     0.69935452     0.42564718
     0.13265306     0.73506880     0.42564718
     0.13265306     0.77078309     0.42564718
     0.13265306     0.80649738     0.42564718
     0.13265306     0.84221166     0.42564718
     0.13265306     0.87792595     0.42564718
     0.13265306     0.91364023     0.42564718
     0.13265306     0.94935452     0.42564718
     0.13265306     0.98506880     0.42564718
     0.15306122     0.02078309     0.42564718
     0.15306122     0.05649738     0.42564718
     0.15306122     0.09221166     0.42564718
     0.15306122     0.12792595     0.42564718
     0.15306122     0.16364023     0.42564718
     0.15306122     0.19935452     0.42564718
     0.15306122     0.23506880     0.42564718
     0.15306122     0.27078309     0.42564718
     0.15306122     0.30649738     0.42564718
     0.15306122     0.34221166     0.42564718
     0.15306122     0.37792595     0.42564718
     0.15306122     0.41364023     0.42564718
     0.15306122     0.44935452     0.42564718
     0.15306122     0.48506880     0.42564718
     0.15306122     0.52078309     0.42564718
     0.15306122     0.55649738     0.42564718
     0.15306122     0.59221166     0.42564718
     0.15306122     0.62792595     0.42564718
     0.15306122     0.66364023     0.42564718
     0.15306122     0.69935452     0.42564718
     0.15306122     0.73506880     0.42564718
     0.15306122     0.77078309     0.42564718
     0.15306122     0.80649738     0.42564718
     0.15306122     0.84221166     0.42564718
     0.15306122     0.87792595     0.42564718
     0.15306122     0.91364023     0.42564718
     0.15306122     0.94935452     0.42564718
     0.15306122     0.98506880     0.42564718
     0.17346939     0.02078309     0.42564718
     0.17346939     0.05649738     0.42564718
     0.17346939     0.09221166     0.42564718
     0.17346939     0.12792595     0.42564718
     0.17346939     0.16364023     0.42564718
     0.17346939     0.19935452     0.42564718
     0.17346939     0.23506880     0.42564718
     0.17346939     0.27078309     0.42564718
     0.17346939     0.30649738     0.42564718
     0.17346939     0.34221166     0.42564718
     0.17346939     0.37792595     0.42564718
     0.17346939     0.41364023     0.42564718
     0.17346939     0.44935452     0.42564718
     0.17346939     0.48506880     0.42564718
     0.17346939     0.52078309     0.42564718
     0.17346939     0.55649738     0.42564718
     0.17346939     0.59221166     0.42564718
     0.17346939     0.62792595     0.42564718
     0.17346939     0.66364023     0.42564718
     0.17346939     0.69935452     0.42564718
     0.17346939     0.73506880     0.42564718
     0.17346939     0.77078309     0.42564718
     0.17346939     0.80649738     0.42564718
     0.17346939     0.84221166     0.42564718
     0.17346939     0.87792595     0.42564718
     0.17346939     0.91364023     0.42564718
     0.17346939     0.94935452     0.42564718
     0.17346939     0.98506880     0.42564718
     0.19387755     0.02078309     0.42564718
     0.19387755     0.05649738     0.42564718
     0.19387755     0.09221166     0.42564718
     0.19387755     0.12792595     0.42564718
     0.19387755     0.16364023     0.42564718
     0.19387755     0.19935452     0.42564718
     0.19387755     0.23506880     0.42564718
     0.19387755     0.27078309     0.42564718
     0.19387755     0.30649738     0.42564718
     0.19387755     0.34221166     0.42564718
     0.19387755     0.37792595     0.42564718
     0.19387755     0.41364023     0.42564718
     0.19387755     0.44935452     0.42564718
     0.19387755     0.48506880     0.42564718
     0.19387755     0.52078309     0.42564718
     0.19387755     0.55649738     0.42564718
     0.19387755     0.59221166     0.42564718
     0.19387755     0.62792595     0.42564718
     0.19387755     0.66364023     0.42564718
     0.19387755     0.69935452     0.42564718
     0.19387755     0.73506880     0.42564718
     0.19387755     0.77078309     0.42564718
     0.19387755     0.80649738     0.42564718
     0.19387755     0.84221166     0.42564718
     0.19387755     0.87792595     0.42564718
     0.19387755     0.91364023     0.42564718
     0.19387755     0.94935452     0.42564718
     0.19387755     0.98506880     0.42564718
     0.21428571     0.02078309     0.42564718
     0.21428571     0.05649738     0.42564718
     0.21428571     0.09221166     0.42564718
     0.21428571     0.12792595     0.42564718
     0.21428571     0.16364023     0.42564718
     0.21428571     0.19935452     0.42564718
     0.21428571     0.23506880     0.42564718
     0.21428571     0.27078309     0.42564718
     0.21428571     0.30649738     0.42564718
     0.21428571     0.34221166     0.42564718
     0.21428571     0.37792595     0.42564718
     0.21428571     0.41364023     0.42564718
     0.21428571     0.44935452     0.42564718
     0.21428571     0.48506880     0.42564718
     0.21428571     0.52078309     0.42564718
     0.21428571     0.55649738     0.42564718
     0.21428571     0.59221166     0.42564718
     0.21428571     0.62792595     0.42564718
     0.21428571     0.66364023     0.42564718
     0.21428571     0.69935452     0.42564718
     0.21428571     0.73506880     0.42564718
     0.21428571     0.77078309     0.42564718
     0.21428571     0.80649738     0.42564718
     0.21428571     0.84221166     0.42564718
     0.21428571     0.87792595     0.42564718
     0.21428571     0.91364023     0.42564718
     0.21428571     0.94935452     0.42564718
     0.21428571     0.98506880     0.42564718
     0.23469388     0.02078309     0.42564718
     0.23469388     0.05649738     0.42564718
     0.23469388     0.09221166     0.42564718
     0.23469388     0.12792595     0.42564718
     0.23469388     0.16364023     0.42564718
     0.23469388     0.19935452     0.42564718
     0.23469388     0.23506880     0.42564718
     0.23469388     0.27078309     0.42564718
     0.23469388     0.30649738     0.42564718
     0.23469388     0.34221166     0.42564718
     0.23469388     0.37792595     0.42564718
     0.23469388     0.41364023     0.42564718
     0.23469388     0.44935452     0.42564718
     0.23469388     0.48506880     0.42564718
     0.23469388     0.52078309     0.42564718
     0.23469388     0.55649738     0.42564718
     0.23469388     0.59221166     0.42564718
     0.23469388     0.62792595     0.42564718
     0.23469388     0.66364023     0.42564718
     0.23469388     0.69935452     0.42564718
     0.23469388     0.73506880     0.42564718
     0.23469388     0.77078309     0.42564718
     0.23469388     0.80649738     0.42564718
     0.23469388     0.84221166     0.42564718
     0.23469388     0.87792595     0.42564718
     0.23469388     0.91364023     0.42564718
     0.23469388     0.94935452     0.42564718
     0.23469388     0.98506880     0.42564718
     0.25510204     0.02078309     0.42564718
     0.25510204     0.05649738     0.42564718
     0.25510204     0.09221166     0.42564718
     0.25510204     0.12792595     0.42564718
     0.25510204     0.16364023     0.42564718
     0.25510204     0.19935452     0.42564718
     0.25510204     0.23506880     0.42564718
     0.25510204     0.27078309     0.42564718
     0.25510204     0.30649738     0.42564718
     0.25510204     0.34221166     0.42564718
     0.25510204     0.37792595     0.42564718
     0.25510204     0.41364023     0.42564718
     0.25510204     0.44935452     0.42564718
     0.25510204     0.48506880     0.42564718
     0.25510204     0.52078309     0.42564718
     0.25510204     0.55649738     0.42564718
     0.25510204     0.59221166     0.42564718
     0.25510204     0.62792595     0.42564718
     0.25510204     0.66364023     0.42564718
     0.25510204     0.69935452     0.42564718
     0.25510204     0.73506880     0.42564718
     0.25510204     0.77078309     0.42564718
     0.25510204     0.80649738     0.42564718
     0.25510204     0.84221166     0.42564718
     0.25510204     0.87792595     0.42564718
     0.25510204     0.91364023     0.42564718
     0.25510204     0.94935452     0.42564718
     0.25510204     0.98506880     0.42564718
     0.27551020     0.02078309     0.42564718
     0.27551020     0.05649738     0.42564718
     0.27551020     0.09221166     0.42564718
     0.27551020     0.12792595     0.42564718
     0.27551020     0.16364023     0.42564718
     0.27551020     0.19935452     0.42564718
     0.27551020     0.23506880     0.42564718
     0.27551020     0.27078309     0.42564718
     0.27551020     0.30649738     0.42564718
     0.27551020     0.34221166     0.42564718
     0.27551020     0.37792595     0.42564718
     0.27551020     0.41364023     0.42564718
     0.27551020     0.44935452     0.42564718
     0.27551020     0.48506880     0.42564718
     0.27551020     0.52078309     0.42564718
     0.27551020     0.55649738     0.42564718
     0.27551020     0.59221166     0.42564718
     0.27551020     0.62792595     0.42564718
     0.27551020     0.66364023     0.42564718
     0.27551020     0.69935452     0.42564718
     0.27551020     0.73506880     0.42564718
     0.27551020     0.77078309     0.42564718
     0.27551020     0.80649738     0.42564718
     0.27551020     0.84221166     0.42564718
     0.27551020     0.87792595     0.42564718
     0.27551020     0.91364023     0.42564718
     0.27551020     0.94935452     0.42564718
     0.27551020     0.98506880     0.42564718
     0.29591837     0.02078309     0.42564718
     0.29591837     0.05649738     0.42564718
     0.29591837     0.09221166     0.42564718
     0.29591837     0.12792595     0.42564718
     0.29591837     0.16364023     0.42564718
     0.29591837     0.19935452     0.42564718
     0.29591837     0.23506880     0.42564718
     0.29591837     0.27078309     0.42564718
     0.29591837     0.30649738     0.42564718
     0.29591837     0.34221166     0.42564718
     0.29591837     0.37792595     0.42564718
     0.29591837     0.41364023     0.42564718
     0.29591837     0.44935452     0.42564718
     0.29591837     0.48506880     0.42564718
     0.29591837     0.52078309     0.42564718
     0.29591837     0.55649738     0.42564718
     0.29591837     0.59221166     0.42564718
     0.29591837     0.62792595     0.42564718
     0.29591837     0.66364023     0.42564718
     0.29591837     0.69935452     0.42564718
     0.29591837     0.73506880     0.42564718
     0.29591837     0.77078309     0.42564718
     0.29591837     0.80649738     0.42564718
     0.29591837     0.84221166     0.42564718
     0.29591837     0.87792595     0.42564718
     0.29591837     0.91364023     0.42564718
     0.29591837     0.94935452     0.42564718
     0.29591837     0.98506880     0.42564718
     0.31632653     0.02078309     0.42564718
     0.31632653     0.05649738     0.42564718
     0.31632653     0.09221166     0.42564718
     0.31632653     0.12792595     0.42564718
     0.31632653     0.16364023     0.42564718
     0.31632653     0.19935452     0.42564718
     0.31632653     0.23506880     0.42564718
     0.31632653     0.27078309     0.42564718
     0.31632653     0.30649738     0.42564718
     0.31632653     0.34221166     0.42564718
     0.31632653     0.37792595     0.42564718
     0.31632653     0.41364023     0.42564718
     0.31632653     0.44935452     0.42564718
     0.31632653     0.48506880     0.42564718
     0.31632653     0.52078309     0.42564718
     0.31632653     0.55649738     0.42564718
     0.31632653     0.59221166     0.42564718
     0.31632653     0.62792595     0.42564718
     0.31632653     0.66364023     0.42564718
     0.31632653     0.69935452     0.42564718
     0.31632653     0.73506880     0.42564718
     0.31632653     0.77078309     0.42564718
     0.31632653     0.80649738     0.42564718
     0.31632653     0.84221166     0.42564718
     0.31632653     0.87792595     0.42564718
     0.31632653     0.91364023     0.42564718
     0.31632653     0.94935452     0.42564718
     0.31632653     0.98506880     0.42564718
     0.33673469     0.02078309     0.42564718
     0.33673469     0.05649738     0.42564718
     0.33673469     0.09221166     0.42564718
     0.33673469     0.12792595     0.42564718
     0.33673469     0.16364023     0.42564718
     0.33673469     0.19935452     0.42564718
     0.33673469     0.23506880     0.42564718
     0.33673469     0.27078309     0.42564718
     0.33673469     0.30649738     0.42564718
     0.33673469     0.34221166     0.42564718
     0.33673469     0.37792595     0.42564718
     0.33673469     0.41364023     0.42564718
     0.33673469     0.44935452     0.42564718
     0.33673469     0.48506880     0.42564718
     0.33673469     0.52078309     0.42564718
     0.33673469     0.55649738     0.42564718
     0.33673469     0.59221166     0.42564718
     0.33673469     0.62792595     0.42564718
     0.33673469     0.66364023     0.42564718
     0.33673469     0.69935452     0.42564718
     0.33673469     0.73506880     0.42564718
     0.33673469     0.77078309     0.42564718
     0.33673469     0.80649738     0.42564718
     0.33673469     0.84221166     0.42564718
     0.33673469     0.87792595     0.42564718
     0.33673469     0.91364023     0.42564718
     0.33673469     0.94935452     0.42564718
     0.33673469     0.98506880     0.42564718
     0.35714286     0.02078309     0.42564718
     0.35714286     0.05649738     0.42564718
     0.35714286     0.09221166     0.42564718
     0.35714286     0.12792595     0.42564718
     0.35714286     0.16364023     0.42564718
     0.35714286     0.19935452     0.42564718
     0.35714286     0.23506880     0.42564718
     0.35714286     0.27078309     0.42564718
     0.35714286     0.30649738     0.42564718
     0.35714286     0.34221166     0.42564718
     0.35714286     0.37792595     0.42564718
     0.35714286     0.41364023     0.42564718
     0.35714286     0.44935452     0.42564718
     0.35714286     0.48506880     0.42564718
     0.35714286     0.52078309     0.42564718
     0.35714286     0.55649738     0.42564718
     0.35714286     0.59221166     0.42564718
     0.35714286     0.62792595     0.42564718
     0.35714286     0.66364023     0.42564718
     0.35714286     0.69935452     0.42564718
     0.35714286     0.73506880     0.42564718
     0.35714286     0.77078309     0.42564718
     0.35714286     0.80649738     0.42564718
     0.35714286     0.84221166     0.42564718
     0.35714286     0.87792595     0.42564718
     0.35714286     0.91364023     0.42564718
     0.35714286     0.94935452     0.42564718
     0.35714286     0.98506880     0.42564718
     0.37755102     0.02078309     0.42564718
     0.37755102     0.05649738     0.42564718
     0.37755102     0.09221166     0.42564718
     0.37755102     0.12792595     0.42564718
     0.37755102     0.16364023     0.42564718
     0.37755102     0.19935452     0.42564718
     0.37755102     0.23506880     0.42564718
     0.37755102     0.27078309     0.42564718
     0.37755102     0.30649738     0.42564718
     0.37755102     0.34221166     0.42564718
     0.37755102     0.37792595     0.42564718
     0.37755102     0.41364023     0.42564718
     0.37755102     0.44935452     0.42564718
     0.37755102     0.48506880     0.42564718
     0.37755102     0.52078309     0.42564718
     0.37755102     0.55649738     0.42564718
     0.37755102     0.59221166     0.42564718
     0.37755102     0.62792595     0.42564718
     0.37755102     0.66364023     0.42564718
     0.37755102     0.69935452     0.42564718
     0.37755102     0.73506880     0.42564718
     0.37755102     0.77078309     0.42564718
     0.37755102     0.80649738     0.42564718
     0.37755102     0.84221166     0.42564718
     0.37755102     0.87792595     0.42564718
     0.37755102     0.91364023     0.42564718
     0.37755102     0.94935452     0.42564718
     0.37755102     0.98506880     0.42564718
     0.39795918     0.02078309     0.42564718
     0.39795918     0.05649738     0.42564718
     0.39795918     0.09221166     0.42564718
     0.39795918     0.12792595     0.42564718
     0.39795918     0.16364023     0.42564718
     0.39795918     0.19935452     0.42564718
     0.39795918     0.23506880     0.42564718
     0.39795918     0.27078309     0.42564718
     0.39795918     0.30649738     0.42564718
     0.39795918     0.34221166     0.42564718
     0.39795918     0.37792595     0.42564718
     0.39795918     0.41364023     0.42564718
     0.39795918     0.44935452     0.42564718
     0.39795918     0.48506880     0.42564718
     0.39795918     0.52078309     0.42564718
     0.39795918     0.55649738     0.42564718
     0.39795918     0.59221166     0.42564718
     0.39795918     0.62792595     0.42564718
     0.39795918     0.66364023     0.42564718
     0.39795918     0.69935452     0.42564718
     0.39795918     0.73506880     0.42564718
     0.39795918     0.77078309     0.42564718
     0.39795918     0.80649738     0.42564718
     0.39795918     0.84221166     0.42564718
     0.39795918     0.87792595     0.42564718
     0.39795918     0.91364023     0.42564718
     0.39795918     0.94935452     0.42564718
     0.39795918     0.98506880     0.42564718
     0.41836735     0.02078309     0.42564718
     0.41836735     0.05649738     0.42564718
     0.41836735     0.09221166     0.42564718
     0.41836735     0.12792595     0.42564718
     0.41836735     0.16364023     0.42564718
     0.41836735     0.19935452     0.42564718
     0.41836735     0.23506880     0.42564718
     0.41836735     0.27078309     0.42564718
     0.41836735     0.30649738     0.42564718
     0.41836735     0.34221166     0.42564718
     0.41836735     0.37792595     0.42564718
     0.41836735     0.41364023     0.42564718
     0.41836735     0.44935452     0.42564718
     0.41836735     0.48506880     0.42564718
     0.41836735     0.52078309     0.42564718
     0.41836735     0.55649738     0.42564718
     0.41836735     0.59221166     0.42564718
     0.41836735     0.62792595     0.42564718
     0.41836735     0.66364023     0.42564718
     0.41836735     0.69935452     0.42564718
     0.41836735     0.73506880     0.42564718
     0.41836735     0.77078309     0.42564718
     0.41836735     0.80649738     0.42564718
     0.41836735     0.84221166     0.42564718
     0.41836735     0.87792595     0.42564718
     0.41836735     0.91364023     0.42564718
     0.41836735     0.94935452     0.42564718
     0.41836735     0.98506880     0.42564718
     0.43877551     0.02078309     0.42564718
     0.43877551     0.05649738     0.42564718
     0.43877551     0.09221166     0.42564718
     0.43877551     0.12792595     0.42564718
     0.43877551     0.16364023     0.42564718
     0.43877551     0.19935452     0.42564718
     0.43877551     0.23506880     0.42564718
     0.43877551     0.27078309     0.42564718
     0.43877551     0.30649738     0.42564718
     0.43877551     0.34221166     0.42564718
     0.43877551     0.37792595     0.42564718
     0.43877551     0.41364023     0.42564718
     0.43877551     0.44935452     0.42564718
     0.43877551     0.48506880     0.42564718
     0.43877551     0.52078309     0.42564718
     0.43877551     0.55649738     0.42564718
     0.43877551     0.59221166     0.42564718
     0.43877551     0.62792595     0.42564718
     0.43877551     0.66364023     0.42564718
     0.43877551     0.69935452     0.42564718
     0.43877551     0.73506880     0.42564718
     0.43877551     0.77078309     0.42564718
     0.43877551     0.80649738     0.42564718
     0.43877551     0.84221166     0.42564718
     0.43877551     0.87792595     0.42564718
     0.43877551     0.91364023     0.42564718
     0.43877551     0.94935452     0.42564718
     0.43877551     0.98506880     0.42564718
     0.45918367     0.02078309     0.42564718
     0.45918367     0.05649738     0.42564718
     0.45918367     0.09221166     0.42564718
     0.45918367     0.12792595     0.42564718
     0.45918367     0.16364023     0.42564718
     0.45918367     0.19935452     0.42564718
     0.45918367     0.23506880     0.42564718
     0.45918367     0.27078309     0.42564718
     0.45918367     0.30649738     0.42564718
     0.45918367     0.34221166     0.42564718
     0.45918367     0.37792595     0.42564718
     0.45918367     0.41364023     0.42564718
     0.45918367     0.44935452     0.42564718
     0.45918367     0.48506880     0.42564718
     0.45918367     0.52078309     0.42564718
     0.45918367     0.55649738     0.42564718
     0.45918367     0.59221166     0.42564718
     0.45918367     0.62792595     0.42564718
     0.45918367     0.66364023     0.42564718
     0.45918367     0.69935452     0.42564718
     0.45918367     0.73506880     0.42564718
     0.45918367     0.77078309     0.42564718
     0.45918367     0.80649738     0.42564718
     0.45918367     0.84221166     0.42564718
     0.45918367     0.87792595     0.42564718
     0.45918367     0.91364023     0.42564718
     0.45918367     0.94935452     0.42564718
     0.45918367     0.98506880     0.42564718
     0.47959184     0.02078309     0.42564718
     0.47959184     0.05649738     0.42564718
     0.47959184     0.09221166     0.42564718