Generated by Twist2D
    1.0
     145.06798394       0.00000000       0.00000000
       0.00000000     106.33167189       0.00000000
       0.00000000       0.00000000      20.00000000
    P
    8452
Direct
     0.01136364     0.02424694     0.42564718
     0.01136364     0.06591361     0.42564718
     0.01136364     0.10758027     0.42564718
     0.01136364     0.14924694     0.42564718
     0.01136364     0.19091361     0.42564718
     0.01136364     0.23258027     0.42564718
     0.01136364     0.27424694     0.42564718
     0.01136364     0.31591361     0.42564718
     0.01136364     0.35758027     0.42564718
     0.01136364     0.39924694     0.42564718
     0.01136364     0.44091361     0.42564718
     0.01136364     0.48258027     0.42564718
     0.01136364     0.52424694     0.42564718
     0.01136364     0.56591361     0.42564718
     0.01136364     0.60758027     0.42564718
     0.01136364     0.64924694     0.42564718
     0.01136364     0.69091361     0.42564718
     0.01136364     0.73258027     0.42564718
     0.01136364     0.77424694     0.42564718
     0.01136364     0.81591361     0.42564718
     0.01136364     0.85758027     0.42564718
     0.01136364     0.89924694     0.42564718
     0.01136364     0.94091361     0.42564718
     0.01136364     0.98258027     0.42564718
     0.03409091     0.02424694     0.42564718
     0.03409091     0.06591361     0.42564718
     0.03409091     0.10758027     0.42564718
     0.03409091     0.14924694     0.42564718
     0.03409091     0.19091361     0.42564718
     0.03409091     0.23258027     0.42564718
     0.03409091     0.27424694     0.42564718
     0.03409091     0.31591361     0.42564718
     0.03409091     0.35758027     0.42564718
     0.03409091     0.39924694     0.42564718
     0.03409091     0.44091361     0.42564718
     0.03409091     0.48258027     0.42564718
     0.03409091     0.52424694     0.42564718
     0.03409091     0.56591361     0.42564718
     0.03409091     0.60758027     0.42564718
     0.03409091     0.64924694     0.42564718
     0.03409091     0.69091361     0.42564718
     0.03409091     0.73258027     0.42564718
     0.03409091     0.77424694     0.42564718
     0.03409091     0.81591361     0.42564718
     0.03409091     0.85758027     0.42564718
     0.03409091     0.89924694     0.42564718
     0.03409091     0.94091361     0.42564718
     0.03409091     0.98258027     0.42564718
     0.05681818     0.02424694     0.42564718
     0.05681818     0.06591361     0.42564718
     0.05681818     0.10758027     0.42564718
     0.05681818     0.14924694     0.42564718
     0.05681818     0.19091361     0.42564718
     0.05681818     0.23258027     0.42564718
     0.05681818     0.27424694     0.42564718
     0.05681818     0.31591361     0.42564718
     0.05681818     0.35758027     0.42564718
     0.05681818     0.39924694     0.42564718
     0.05681818     0.44091361     0.42564718
     0.05681818     0.48258027     0.42564718
     0.05681818     0.52424694     0.42564718
     0.05681818     0.56591361     0.42564718
     0.05681818     0.60758027     0.42564718
     0.05681818     0.64924694     0.42564718
     0.05681818     0.69091361     0.42564718
     0.05681818     0.73258027     0.42564718
     0.05681818     0.77424694     0.42564718
     0.05681818     0.81591361     0.42564718
     0.05681818     0.85758027     0.42564718
     0.05681818     0.89924694     0.42564718
     0.05681818     0.94091361     0.42564718
     0.05681818     0.98258027     0.42564718
     0.07954545     0.02424694     0.42564718
     0.07954545     0.06591361     0.42564718
     0.07954545     0.10758027     0.42564718
     0.07954545     0.14924694     0.42564718
     0.07954545     0.19091361     0.42564718
     0.07954545     0.23258027     0.42564718
     0.07954545     0.27424694     0.42564718
     0.07954545     0.31591361     0.42564718
     0.07954545     0.35758027     0.42564718
     0.07954545     0.39924694     0.42564718
     0.07954545     0.44091361     0.42564718
     0.07954545     0.48258027     0.42564718
     0.07954545     0.52424694     0.42564718
     0.07954545     0.56591361     0.42564718
     0.07954545     0.60758027     0.42564718
     0.07954545     0.64924694     0.42564718
     0.07954545     0.69091361     0.42564718
     0.07954545     0.73258027     0.42564718
     0.07954545     0.77424694     0.42564718
     0.07954545     0.81591361     0.42564718
     0.07954545     0.85758027     0.42564718
     0.07954545     0.89924694     0.42564718
     0.07954545     0.94091361     0.42564718
     0.07954545     0.98258027     0.42564718
     0.10227273     0.02424694     0.42564718
     0.10227273     0.06591361     0.42564718
     0.10227273     0.10758027     0.42564718
     0.10227273     0.14924694     0.42564718
     0.10227273     0.19091361     0.42564718
     0.10227273     0.23258027     0.42564718
     0.10227273     0.27424694     0.42564718
     0.10227273     0.31591361     0.42564718
     0.10227273     0.35758027     0.42564718
     0.10227273     0.39924694     0.42564718
     0.10227273     0.44091361     0.42564718
     0.10227273     0.48258027     0.42564718
     0.10227273     0.52424694     0.42564718
     0.10227273     0.56591361     0.42564718
     0.10227273     0.60758027     0.42564718
     0.10227273     0.64924694     0.42564718
     0.10227273     0.69091361     0.42564718
     0.10227273     0.73258027     0.42564718
     0.10227273     0.77424694     0.42564718
     0.10227273     0.81591361     0.42564718
     0.10227273     0.85758027     0.42564718
     0.10227273     0.89924694     0.42564718
     0.10227273     0.94091361     0.42564718
     0.10227273     0.98258027     0.42564718
     0.12500000     0.02424694     0.42564718
     0.12500000     0.06591361     0.42564718
     0.12500000     0.10758027     0.42564718
     0.12500000     0.14924694     0.42564718
     0.12500000     0.19091361     0.42564718
     0.12500000     0.23258027     0.42564718
     0.12500000     0.27424694     0.42564718
     0.12500000     0.31591361     0.42564718
     0.12500000     0.35758027     0.42564718
     0.12500000     0.39924694     0.42564718
     0.12500000     0.44091361     0.42564718
     0.12500000     0.48258027     0.42564718
     0.12500000     0.52424694     0.42564718
     0.12500000     0.56591361     0.42564718
     0.12500000     0.60758027     0.42564718
     0.12500000     0.64924694     0.42564718
     0.12500000     0.69091361     0.42564718
     0.12500000     0.73258027     0.42564718
     0.12500000     0.77424694     0.42564718
     0.12500000     0.81591361     0.42564718
     0.12500000     0.85758027     0.42564718
     0.12500000     0.89924694     0.42564718
     0.12500000     0.94091361     0.42564718
     0.12500000     0.98258027     0.42564718
     0.14772727     0.02424694     0.42564718
     0.14772727     0.06591361     0.42564718
     0.14772727     0.10758027     0.42564718
     0.14772727     0.14924694     0.42564718
     0.14772727     0.19091361     0.42564718
     0.14772727     0.23258027     0.42564718
     0.14772727     0.27424694     0.42564718
     0.14772727     0.31591361     0.42564718
     0.14772727     0.35758027     0.42564718
     0.14772727     0.39924694     0.42564718
     0.14772727     0.44091361     0.42564718
     0.14772727     0.48258027     0.42564718
     0.14772727     0.52424694     0.42564718
     0.14772727     0.56591361     0.42564718
     0.14772727     0.60758027     0.42564718
     0.14772727     0.64924694     0.42564718
     0.14772727     0.69091361     0.42564718
     0.14772727     0.73258027     0.42564718
     0.14772727     0.77424694     0.42564718
     0.14772727     0.81591361     0.42564718
     0.14772727     0.85758027     0.42564718
     0.14772727     0.89924694     0.42564718
     0.14772727     0.94091361     0.42564718
     0.14772727     0.98258027     0.42564718
     0.17045455     0.02424694     0.42564718
     0.17045455     0.06591361     0.42564718
     0.17045455     0.10758027     0.42564718
     0.17045455     0.14924694     0.42564718
     0.17045455     0.19091361     0.42564718
     0.17045455     0.23258027     0.42564718
     0.17045455     0.27424694     0.42564718
     0.17045455     0.31591361     0.42564718
     0.17045455     0.35758027     0.42564718
     0.17045455     0.39924694     0.42564718
     0.17045455     0.44091361     0.42564718
     0.17045455     0.48258027     0.42564718
     0.17045455     0.52424694     0.42564718
     0.17045455     0.56591361     0.42564718
     0.17045455     0.60758027     0.42564718
     0.17045455     0.64924694     0.42564718
     0.17045455     0.69091361     0.42564718
     0.17045455     0.73258027     0.42564718
     0.17045455     0.77424694     0.42564718
     0.17045455     0.81591361     0.42564718
     0.17045455     0.85758027     0.42564718
     0.17045455     0.89924694     0.42564718
     0.17045455     0.94091361     0.42564718
     0.17045455     0.98258027     0.42564718
     0.19318182     0.02424694     0.42564718
     0.19318182     0.06591361     0.42564718
     0.19318182     0.10758027     0.42564718
     0.19318182     0.14924694     0.42564718
     0.19318182     0.19091361     0.42564718
     0.19318182     0.23258027     0.42564718
     0.19318182     0.27424694     0.42564718
     0.19318182     0.31591361     0.42564718
     0.19318182     0.35758027     0.42564718
     0.19318182     0.39924694     0.42564718
     0.19318182     0.44091361     0.42564718
     0.19318182     0.48258027     0.42564718
     0.19318182     0.52424694     0.42564718
     0.19318182     0.56591361     0.42564718
     0.19318182     0.60758027     0.42564718
     0.19318182     0.64924694     0.42564718
     0.19318182     0.69091361     0.42564718
     0.19318182     0.73258027     0.42564718
     0.19318182     0.77424694     0.42564718
     0.19318182     0.81591361     0.42564718
     0.19318182     0.85758027     0.42564718
     0.19318182     0.89924694     0.42564718
     0.19318182     0.94091361     0.42564718
     0.19318182     0.98258027     0.42564718
     0.21590909     0.02424694     0.42564718
     0.21590909     0.06591361     0.42564718
     0.21590909     0.10758027     0.42564718
     0.21590909     0.14924694     0.42564718
     0.21590909     0.19091361     0.42564718
     0.21590909     0.23258027     0.42564718
     0.21590909     0.27424694     0.42564718
     0.21590909     0.31591361     0.42564718
     0.21590909     0.35758027     0.42564718
     0.21590909     0.39924694     0.42564718
     0.21590909     0.44091361     0.42564718
     0.21590909     0.48258027     0.42564718
     0.21590909     0.52424694     0.42564718
     0.21590909     0.56591361     0.42564718
     0.21590909     0.60758027     0.42564718
     0.21590909     0.64924694     0.42564718
     0.21590909     0.69091361     0.42564718
     0.21590909     0.73258027     0.42564718
     0.21590909     0.77424694     0.42564718
     0.21590909     0.81591361     0.42564718
     0.21590909     0.85758027     0.42564718
     0.21590909     0.89924694     0.42564718
     0.21590909     0.94091361     0.42564718
     0.21590909     0.98258027     0.42564718
     0.23863636     0.02424694     0.42564718
     0.23863636     0.06591361     0.42564718
     0.23863636     0.10758027     0.42564718
     0.23863636     0.14924694     0.42564718
     0.23863636     0.19091361     0.42564718
     0.23863636     0.23258027     0.42564718
     0.23863636     0.27424694     0.42564718
     0.23863636     0.31591361     0.42564718
     0.23863636     0.35758027     0.42564718
     0.23863636     0.39924694     0.42564718
     0.23863636     0.44091361     0.42564718
     0.23863636     0.48258027     0.42564718
     0.23863636     0.52424694     0.42564718
     0.23863636     0.56591361     0.42564718
     0.23863636     0.60758027     0.42564718
     0.23863636     0.64924694     0.42564718
     0.23863636     0.69091361     0.42564718
     0.23863636     0.73258027     0.42564718
     0.23863636     0.77424694     0.42564718
     0.23863636     0.81591361     0.42564718
     0.23863636     0.85758027     0.42564718
     0.23863636     0.89924694     0.42564718
     0.23863636     0.94091361     0.42564718
     0.23863636     0.98258027     0.42564718
     0.26136364     0.02424694     0.42564718
     0.26136364     0.06591361     0.42564718
     0.26136364     0.10758027     0.42564718
     0.26136364     0.14924694     0.42564718
     0.26136364     0.19091361     0.42564718
     0.26136364     0.23258027     0.42564718
     0.26136364     0.27424694     0.42564718
     0.26136364     0.31591361     0.42564718
     0.26136364     0.35758027     0.42564718
     0.26136364     0.39924694     0.42564718
     0.26136364     0.44091361     0.42564718
     0.26136364     0.48258027     0.42564718
     0.26136364     0.52424694     0.42564718
     0.26136364     0.56591361     0.42564718
     0.26136364     0.60758027     0.42564718
     0.26136364     0.64924694     0.42564718
     0.26136364     0.69091361     0.42564718
     0.26136364     0.73258027     0.42564718
     0.26136364     0.77424694     0.42564718
     0.26136364     0.81591361     0.42564718
     0.26136364     0.85758027     0.42564718
     0.26136364     0.89924694     0.42564718
     0.26136364     0.94091361     0.42564718
     0.26136364     0.98258027     0.42564718
     0.28409091     0.02424694     0.42564718
     0.28409091     0.06591361     0.42564718
     0.28409091     0.10758027     0.42564718
     0.28409091     0.14924694     0.42564718
     0.28409091     0.19091361     0.42564718
     0.28409091     0.23258027     0.42564718
     0.28409091     0.27424694     0.42564718
     0.28409091     0.31591361     0.42564718
     0.28409091     0.35758027     0.42564718
     0.28409091     0.39924694     0.42564718
     0.28409091     0.44091361     0.42564718
     0.28409091     0.48258027     0.42564718
     0.28409091     0.52424694     0.42564718
     0.28409091     0.56591361     0.42564718
     0.28409091     0.60758027     0.42564718
     0.28409091     0.64924694     0.42564718
     0.28409091     0.69091361     0.42564718
     0.28409091     0.73258027     0.42564718
     0.28409091     0.77424694     0.42564718
     0.28409091     0.81591361     0.42564718
     0.28409091     0.85758027     0.42564718
     0.28409091     0.89924694     0.42564718
     0.28409091     0.94091361     0.42564718
     0.28409091     0.98258027     0.42564718
     0.30681818     0.02424694     0.42564718
     0.30681818     0.06591361     0.42564718
     0.30681818     0.10758027     0.42564718
     0.30681818     0.14924694     0.42564718
     0.30681818     0.19091361     0.42564718
     0.30681818     0.23258027     0.42564718
     0.30681818     0.27424694     0.42564718
     0.30681818     0.31591361     0.42564718
     0.30681818     0.35758027     0.42564718
     0.30681818     0.39924694     0.42564718
     0.30681818     0.44091361     0.42564718
     0.30681818     0.48258027     0.42564718
     0.30681818     0.52424694     0.42564718
     0.30681818     0.56591361     0.42564718
     0.30681818     0.60758027     0.42564718
     0.30681818     0.64924694     0.42564718
     0.30681818     0.69091361     0.42564718
     0.30681818     0.73258027     0.42564718
     0.30681818     0.77424694     0.42564718
     0.30681818     0.81591361     0.42564718
     0.30681818     0.85758027     0.42564718
     0.30681818     0.89924694     0.42564718
     0.30681818     0.94091361     0.42564718
     0.30681818     0.98258027     0.42564718
     0.32954545     0.02424694     0.42564718
     0.32954545     0.06591361     0.42564718
     0.32954545     0.10758027     0.42564718
     0.32954545     0.14924694     0.42564718
     0.32954545     0.19091361     0.42564718
     0.32954545     0.23258027     0.42564718
     0.32954545     0.27424694     0.42564718
     0.32954545     0.31591361     0.42564718
     0.32954545     0.35758027     0.42564718
     0.32954545     0.39924694     0.42564718
     0.32954545     0.44091361     0.42564718
     0.32954545     0.48258027     0.42564718
     0.32954545     0.52424694     0.42564718
     0.32954545     0.56591361     0.42564718
     0.32954545     0.60758027     0.42564718
     0.32954545     0.64924694     0.42564718
     0.32954545     0.69091361     0.42564718
     0.32954545     0.73258027     0.42564718
     0.32954545     0.77424694     0.42564718
     0.32954545     0.81591361     0.42564718
     0.32954545     0.85758027     0.42564718
     0.32954545     0.89924694     0.42564718
     0.32954545     0.94091361     0.42564718
     0.32954545     0.98258027     0.42564718
     0.35227273     0.02424694     0.42564718
     0.35227273     0.06591361     0.42564718
     0.35227273     0.10758027     0.42564718
     0.35227273     0.14924694     0.42564718
     0.35227273     0.19091361     0.42564718
     0.35227273     0.23258027     0.42564718
     0.35227273     0.27424694     0.42564718
     0.35227273     0.31591361     0.42564718
     0.35227273     0.35758027     0.42564718
     0.35227273     0.39924694     0.42564718
     0.35227273     0.44091361     0.42564718
     0.35227273     0.48258027     0.42564718
     0.35227273     0.52424694     0.42564718
     0.35227273     0.56591361     0.42564718
     0.35227273     0.60758027     0.42564718
     0.35227273     0.64924694     0.42564718
     0.35227273     0.69091361     0.42564718
     0.35227273     0.73258027     0.42564718
     0.35227273     0.77424694     0.42564718
     0.35227273     0.81591361     0.42564718
     0.35227273     0.85758027     0.42564718
     0.35227273     0.89924694     0.42564718
     0.35227273     0.94091361     0.42564718
     0.35227273     0.98258027     0.42564718
     0.37500000     0.02424694     0.42564718
     0.37500000     0.06591361     0.42564718
     0.37500000     0.10758027     0.42564718
     0.37500000     0.14924694     0.42564718
     0.37500000     0.19091361     0.42564718
     0.37500000     0.23258027     0.42564718
     0.37500000     0.27424694     0.42564718
     0.37500000     0.31591361     0.42564718
     0.37500000     0.35758027     0.42564718
     0.37500000     0.39924694     0.42564718
     0.37500000     0.44091361     0.42564718
     0.37500000     0.48258027     0.42564718
     0.37500000     0.52424694     0.42564718
     0.37500000     0.56591361     0.42564718
     0.37500000     0.60758027     0.42564718
     0.37500000     0.64924694     0.42564718
     0.37500000     0.69091361     0.42564718
     0.37500000     0.73258027     0.42564718
     0.37500000     0.77424694     0.42564718
     0.37500000     0.81591361     0.42564718
     0.37500000     0.85758027     0.42564718
     0.37500000     0.89924694     0.42564718
     0.37500000     0.94091361     0.42564718
     0.37500000     0.98258027     0.42564718
     0.39772727     0.02424694     0.42564718
     0.39772727     0.06591361     0.42564718
     0.39772727     0.10758027     0.42564718
     0.39772727     0.14924694     0.42564718
     0.39772727     0.19091361     0.42564718
     0.39772727     0.23258027     0.42564718
     0.39772727     0.27424694     0.42564718
     0.39772727     0.31591361     0.42564718
     0.39772727     0.35758027     0.42564718
     0.39772727     0.39924694     0.42564718
     0.39772727     0.44091361     0.42564718
     0.39772727     0.48258027     0.42564718
     0.39772727     0.52424694     0.42564718
     0.39772727     0.56591361     0.42564718
     0.39772727     0.60758027     0.42564718
     0.39772727     0.64924694     0.42564718
     0.39772727     0.69091361     0.42564718
     0.39772727     0.73258027     0.42564718
     0.39772727     0.77424694     0.42564718
     0.39772727     0.81591361     0.42564718
     0.39772727     0.85758027     0.42564718
     0.39772727     0.89924694     0.42564718
     0.39772727     0.94091361     0.42564718
     0.39772727     0.98258027     0.42564718
     0.42045455     0.02424694     0.42564718
     0.42045455     0.06591361     0.42564718
     0.42045455     0.10758027     0.42564718
     0.42045455     0.14924694     0.42564718
     0.42045455     0.19091361     0.42564718
     0.42045455     0.23258027     0.42564718
     0.42045455     0.27424694     0.42564718
     0.42045455     0.31591361     0.42564718
     0.42045455     0.35758027     0.42564718
     0.42045455     0.39924694     0.42564718
     0.42045455     0.44091361     0.42564718
     0.42045455     0.48258027     0.42564718
     0.42045455     0.52424694     0.42564718
     0.42045455     0.56591361     0.42564718
     0.42045455     0.60758027     0.42564718
     0.42045455     0.64924694     0.42564718
     0.42045455     0.69091361     0.42564718
     0.42045455     0.73258027     0.42564718
     0.42045455     0.77424694     0.42564718
     0.42045455     0.81591361     0.42564718
     0.42045455     0.85758027     0.42564718
     0.42045455     0.89924694     0.42564718
     0.42045455     0.94091361     0.42564718
     0.42045455     0.98258027     0.42564718
     0.44318182     0.02424694     0.42564718
     0.44318182     0.06591361     0.42564718
     0.44318182     0.10758027     0.42564718
     0.44318182     0.14924694     0.42564718
     0.44318182     0.19091361     0.42564718
     0.44318182     0.23258027     0.42564718
     0.44318182     0.27424694     0.42564718
     0.44318182     0.31591361     0.42564718
     0.44318182     0.35758027     0.42564718
     0.44318182     0.39924694     0.42564718
     0.44318182     0.44091361     0.42564718
     0.44318182     0.48258027     0.42564718
     0.44318182     0.52424694     0.42564718
     0.44318182     0.56591361     0.42564718
     0.44318182     0.60758027     0.42564718
     0.44318182     0.64924694     0.42564718
     0.44318182     0.69091361     0.42564718
     0.44318182     0.73258027     0.42564718
     0.44318182     0.77424694     0.42564718
     0.44318182     0.81591361     0.42564718
     0.44318182     0.85758027     0.42564718
     0.44318182     0.89924694     0.42564718
     0.44318182     0.94091361     0.42564718
     0.44318182     0.98258027     0.42564718
     0.46590909     0.02424694     0.42564718
     0.46590909     0.06591361     0.42564718
     0.46590909     0.10758027     0.42564718
     0.46590909     0.14924694     0.42564718
     0.46590909     0.19091361     0.42564718
     0.46590909     0.23258027     0.42564718
     0.46590909     0.27424694     0.42564718
     0.46590909     0.31591361     0.42564718
     0.46590909     0.35758027     0.42564718
     0.46590909     0.39924694     0.42564718
     0.46590909     0.44091361     0.42564718
     0.46590909     0.48258027     0.42564718
     0.46590909     0.52424694     0.42564718
     0.46590909     0.56591361     0.42564718
     0.46590909     0.60758027     0.42564718
     0.46590909     0.64924694     0.42564718
     0.46590909     0.69091361     0.42564718
     0.46590909     0.73258027     0.42564718
     0.46590909     0.77424694     0.42564718
     0.46590909     0.81591361     0.42564718
     0.46590909     0.85758027     0.42564718
     0.46590909     0.89924694     0.42564718
     0.46590909     0.94091361     0.42564718
     0.46590909     0.98258027     0.42564718
     0.48863636     0.02424694     0.42564718
     0.48863636     0.06591361     0.42564718
     0.48863636     0.10758027     0.42564718
     0.48863636     0.14924694     0.42564718
     0.48863636     0.19091361     0.42564718
     0.48863636     0.23258027     0.42564718
     0.48863636     0.27424694     0.42564718
     0.48863636     0.31591361     0.42564718
     0.48863636     0.35758027     0.42564718
     0.48863636     0.39924694     0.42564718
     0.48863636     0.44091361     0.42564718
     0.48863636     0.48258027     0.42564718
     0.48863636     0.52424694     0.42564718
     0.48863636     0.56591361     0.42564718
     0.48863636     0.60758027     0.42564718
     0.48863636     0.64924694     0.42564718
     0.48863636     0.69091361     0.42564718
     0.48863636     0.73258027     0.42564718
     0.48863636     0.77424694     0.42564718
     0.48863636     0.81591361     0.42564718
     0.48863636     0.85758027     0.42564718
     0.48863636     0.89924694     0.42564718
     0.48863636     0.94091361     0.42564718
     0.48863636     0.98258027     0.42564718
     0.51136364     0.02424694     0.42564718
     0.51136364     0.06591361     0.42564718
     0.51136364     0.10758027     0.42564718
     0.51136364     0.14924694     0.42564718
     0.51136364     0.19091361     0.42564718
     0.51136364     0.23258027     0.42564718
     0.51136364     0.27424694     0.42564718
     0.51136364     0.31591361     0.42564718
     0.51136364     0.35758027     0.42564718
     0.51136364     0.39924694     0.42564718
     0.51136364     0.44091361     0.42564718
     0.51136364     0.48258027     0.42564718
     0.51136364     0.52424694     0.42564718
     0.51136364     0.56591361     0.42564718
     0.51136364     0.60758027     0.42564718
     0.51136364     0.64924694     0.42564718
     0.51136364     0.69091361     0.42564718
     0.51136364     0.73258027     0.42564718
     0.51136364     0.77424694     0.42564718
     0.51136364     0.81591361     0.42564718
     0.51136364     0.85758027     0.42564718
     0.51136364     0.89924694     0.42564718
     0.51136364     0.94091361     0.42564718
     0.51136364     0.98258027     0.42564718
     0.53409091     0.02424694     0.42564718
     0.53409091     0.06591361     0.42564718
     0.53409091     0.10758027     0.42564718
     0.53409091     0.14924694     0.42564718
     0.53409091     0.19091361     0.42564718
     0.53409091     0.23258027     0.42564718
     0.53409091     0.27424694     0.42564718
     0.53409091     0.31591361     0.42564718
     0.53409091     0.35758027     0.42564718
     0.53409091     0.39924694     0.42564718
     0.53409091     0.44091361     0.42564718
     0.53409091     0.48258027     0.42564718
     0.53409091     0.52424694     0.42564718
     0.53409091     0.56591361     0.42564718
     0.53409091     0.60758027     0.42564718
     0.53409091     0.64924694     0.42564718
     0.53409091     0.69091361     0.42564718
     0.53409091     0.73258027     0.42564718
     0.53409091     0.77424694     0.42564718
     0.53409091     0.81591361     0.42564718
     0.53409091     0.85758027     0.42564718
     0.53409091     0.89924694     0.42564718
     0.53409091     0.94091361     0.42564718
     0.53409091     0.98258027     0.42564718
     0.55681818     0.02424694     0.42564718
     0.55681818     0.06591361     0.42564718
     0.55681818     0.10758027     0.42564718
     0.55681818     0.14924694     0.42564718
     0.55681818     0.19091361     0.42564718
     0.55681818     0.23258027     0.42564718
     0.55681818     0.27424694     0.42564718
     0.55681818     0.31591361     0.42564718
     0.55681818     0.35758027     0.42564718
     0.55681818     0.39924694     0.42564718
     0.55681818     0.44091361     0.42564718
     0.55681818     0.48258027     0.42564718
     0.55681818     0.52424694     0.42564718
     0.55681818     0.56591361     0.42564718
     0.55681818     0.60758027     0.42564718
     0.55681818     0.64924694     0.42564718
     0.55681818     0.69091361     0.42564718
     0.55681818     0.73258027     0.42564718
     0.55681818     0.77424694     0.42564718
     0.55681818     0.81591361     0.42564718
     0.55681818     0.85758027     0.42564718
     0.55681818     0.89924694     0.42564718
     0.55681818     0.94091361     0.42564718
     0.55681818     0.98258027     0.42564718
     0.57954545     0.02424694     0.42564718
     0.57954545     0.06591361     0.42564718
     0.57954545     0.10758027     0.42564718
     0.57954545     0.14924694     0.42564718
     0.57954545     0.19091361     0.42564718
     0.57954545     0.23258027     0.42564718
     0.57954545     0.27424694     0.42564718
     0.57954545     0.31591361     0.42564718
     0.57954545     0.35758027     0.42564718
     0.57954545     0.39924694     0.42564718
     0.57954545     0.44091361     0.42564718
     0.57954545     0.48258027     0.42564718
     0.57954545     0.52424694     0.42564718
     0.57954545     0.56591361     0.42564718
     0.57954545     0.60758027     0.42564718
     0.57954545     0.64924694     0.42564718
     0.57954545     0.69091361     0.42564718
     0.57954545     0.73258027     0.42564718
     0.57954545     0.77424694     0.42564718
     0.57954545     0.81591361     0.42564718
     0.57954545     0.85758027     0.42564718
     0.57954545     0.89924694     0.42564718
     0.57954545     0.94091361     0.42564718
     0.57954545     0.98258027     0.42564718
     0.60227273     0.02424694     0.42564718
     0.60227273     0.06591361     0.42564718
     0.60227273     0.10758027     0.42564718
     0.60227273     0.14924694     0.42564718
     0.60227273     0.19091361     0.42564718
     0.60227273     0.23258027     0.42564718
     0.60227273     0.27424694     0.42564718
     0.60227273     0.31591361     0.42564718
     0.60227273     0.35758027     0.42564718
     0.60227273     0.39924694     0.42564718
     0.60227273     0.44091361     0.42564718
     0.60227273     0.48258027     0.42564718
     0.60227273     0.52424694     0.42564718
     0.60227273     0.56591361     0.42564718
     0.60227273     0.60758027     0.42564718
     0.60227273     0.64924694     0.42564718
     0.60227273     0.69091361     0.42564718
     0.60227273     0.73258027     0.42564718
     0.60227273     0.77424694     0.42564718
     0.60227273     0.81591361     0.42564718
     0.60227273     0.85758027     0.42564718
     0.60227273     0.89924694     0.42564718
     0.60227273     0.94091361     0.42564718