Generated by Twist2D
    1.0
     164.84998175       0.00000000       0.00000000
       0.00000000     119.62313088       0.00000000
       0.00000000       0.00000000      20.00000000
    P
    10804
Direct
     0.01000000     0.02155283     0.42564718
     0.01000000     0.05858987     0.42564718
     0.01000000     0.09562691     0.42564718
     0.01000000     0.13266395     0.42564718
     0.01000000     0.16970098     0.42564718
     0.01000000     0.20673802     0.42564718
     0.01000000     0.24377506     0.42564718
     0.01000000     0.28081209     0.42564718
     0.01000000     0.31784913     0.42564718
     0.01000000     0.35488617     0.42564718
     0.01000000     0.39192320     0.42564718
     0.01000000     0.42896024     0.42564718
     0.01000000     0.46599728     0.42564718
     0.01000000     0.50303432     0.42564718
     0.01000000     0.54007135     0.42564718
     0.01000000     0.57710839     0.42564718
     0.01000000     0.61414543     0.42564718
     0.01000000     0.65118246     0.42564718
     0.01000000     0.68821950     0.42564718
     0.01000000     0.72525654     0.42564718
     0.01000000     0.76229357     0.42564718
     0.01000000     0.79933061     0.42564718
     0.01000000     0.83636765     0.42564718
     0.01000000     0.87340469     0.42564718
     0.01000000     0.91044172     0.42564718
     0.01000000     0.94747876     0.42564718
     0.01000000     0.98451580     0.42564718
     0.03000000     0.02155283     0.42564718
     0.03000000     0.05858987     0.42564718
     0.03000000     0.09562691     0.42564718
     0.03000000     0.13266395     0.42564718
     0.03000000     0.16970098     0.42564718
     0.03000000     0.20673802     0.42564718
     0.03000000     0.24377506     0.42564718
     0.03000000     0.28081209     0.42564718
     0.03000000     0.31784913     0.42564718
     0.03000000     0.35488617     0.42564718
     0.03000000     0.39192320     0.42564718
     0.03000000     0.42896024     0.42564718
     0.03000000     0.46599728     0.42564718
     0.03000000     0.50303432     0.42564718
     0.03000000     0.54007135     0.42564718
     0.03000000     0.57710839     0.42564718
     0.03000000     0.61414543     0.42564718
     0.03000000     0.65118246     0.42564718
     0.03000000     0.68821950     0.42564718
     0.03000000     0.72525654     0.42564718
     0.03000000     0.76229357     0.42564718
     0.03000000     0.79933061     0.42564718
     0.03000000     0.83636765     0.42564718
     0.03000000     0.87340469     0.42564718
     0.03000000     0.91044172     0.42564718
     0.03000000     0.94747876     0.42564718
     0.03000000     0.98451580     0.42564718
     0.05000000     0.02155283     0.42564718
     0.05000000     0.05858987     0.42564718
     0.05000000     0.09562691     0.42564718
     0.05000000     0.13266395     0.42564718
     0.05000000     0.16970098     0.42564718
     0.05000000     0.20673802     0.42564718
     0.05000000     0.24377506     0.42564718
     0.05000000     0.28081209     0.42564718
     0.05000000     0.31784913     0.42564718
     0.05000000     0.35488617     0.42564718
     0.05000000     0.39192320     0.42564718
     0.05000000     0.42896024     0.42564718
     0.05000000     0.46599728     0.42564718
     0.05000000     0.50303432     0.42564718
     0.05000000     0.54007135     0.42564718
     0.05000000     0.57710839     0.42564718
     0.05000000     0.61414543     0.42564718
     0.05000000     0.65118246     0.42564718
     0.05000000     0.68821950     0.42564718
     0.05000000     0.72525654     0.42564718
     0.05000000     0.76229357     0.42564718
     0.05000000     0.79933061     0.42564718
     0.05000000     0.83636765     0.42564718
     0.05000000     0.87340469     0.42564718
     0.05000000     0.91044172     0.42564718
     0.05000000     0.94747876     0.42564718
     0.05000000     0.98451580     0.42564718
     0.07000000     0.02155283     0.42564718
     0.07000000     0.05858987     0.42564718
     0.07000000     0.09562691     0.42564718
     0.07000000     0.13266395     0.42564718
     0.07000000     0.16970098     0.42564718
     0.07000000     0.20673802     0.42564718
     0.07000000     0.24377506     0.42564718
     0.07000000     0.28081209     0.42564718
     0.07000000     0.31784913     0.42564718
     0.07000000     0.35488617     0.42564718
     0.07000000     0.39192320     0.42564718
     0.07000000     0.42896024     0.42564718
     0.07000000     0.46599728     0.42564718
     0.07000000     0.50303432     0.42564718
     0.07000000     0.54007135     0.42564718
     0.07000000     0.57710839     0.42564718
     0.07000000     0.61414543     0.42564718
     0.07000000     0.65118246     0.42564718
     0.07000000     0.68821950     0.42564718
     0.07000000     0.72525654     0.42564718
     0.07000000     0.76229357     0.42564718
     0.07000000     0.79933061     0.42564718
     0.07000000     0.83636765     0.42564718
     0.07000000     0.87340469     0.42564718
     0.07000000     0.91044172     0.42564718
     0.07000000     0.94747876     0.42564718
     0.07000000     0.98451580     0.42564718
     0.09000000     0.02155283     0.42564718
     0.09000000     0.05858987     0.42564718
     0.09000000     0.09562691     0.42564718
     0.09000000     0.13266395     0.42564718
     0.09000000     0.16970098     0.42564718
     0.09000000     0.20673802     0.42564718
     0.09000000     0.24377506     0.42564718
     0.09000000     0.28081209     0.42564718
     0.09000000     0.31784913     0.42564718
     0.09000000     0.35488617     0.42564718
     0.09000000     0.39192320     0.42564718
     0.09000000     0.42896024     0.42564718
     0.09000000     0.46599728     0.42564718
     0.09000000     0.50303432     0.42564718
     0.09000000     0.54007135     0.42564718
     0.09000000     0.57710839     0.42564718
     0.09000000     0.61414543     0.42564718
     0.09000000     0.65118246     0.42564718
     0.09000000     0.68821950     0.42564718
     0.09000000     0.72525654     0.42564718
     0.09000000     0.76229357     0.42564718
     0.09000000     0.79933061     0.42564718
     0.09000000     0.83636765     0.42564718
     0.09000000     0.87340469     0.42564718
     0.09000000     0.91044172     0.42564718
     0.09000000     0.94747876     0.42564718
     0.09000000     0.98451580     0.42564718
     0.11000000     0.02155283     0.42564718
     0.11000000     0.05858987     0.42564718
     0.11000000     0.09562691     0.42564718
     0.11000000     0.13266395     0.42564718
     0.11000000     0.16970098     0.42564718
     0.11000000     0.20673802     0.42564718
     0.11000000     0.24377506     0.42564718
     0.11000000     0.28081209     0.42564718
     0.11000000     0.31784913     0.42564718
     0.11000000     0.35488617     0.42564718
     0.11000000     0.39192320     0.42564718
     0.11000000     0.42896024     0.42564718
     0.11000000     0.46599728     0.42564718
     0.11000000     0.50303432     0.42564718
     0.11000000     0.54007135     0.42564718
     0.11000000     0.57710839     0.42564718
     0.11000000     0.61414543     0.42564718
     0.11000000     0.65118246     0.42564718
     0.11000000     0.68821950     0.42564718
     0.11000000     0.72525654     0.42564718
     0.11000000     0.76229357     0.42564718
     0.11000000     0.79933061     0.42564718
     0.11000000     0.83636765     0.42564718
     0.11000000     0.87340469     0.42564718
     0.11000000     0.91044172     0.42564718
     0.11000000     0.94747876     0.42564718
     0.11000000     0.98451580     0.42564718
     0.13000000     0.02155283     0.42564718
     0.13000000     0.05858987     0.42564718
     0.13000000     0.09562691     0.42564718
     0.13000000     0.13266395     0.42564718
     0.13000000     0.16970098     0.42564718
     0.13000000     0.20673802     0.42564718
     0.13000000     0.24377506     0.42564718
     0.13000000     0.28081209     0.42564718
     0.13000000     0.31784913     0.42564718
     0.13000000     0.35488617     0.42564718
     0.13000000     0.39192320     0.42564718
     0.13000000     0.42896024     0.42564718
     0.13000000     0.46599728     0.42564718
     0.13000000     0.50303432     0.42564718
     0.13000000     0.54007135     0.42564718
     0.13000000     0.57710839     0.42564718
     0.13000000     0.61414543     0.42564718
     0.13000000     0.65118246     0.42564718
     0.13000000     0.68821950     0.42564718
     0.13000000     0.72525654     0.42564718
     0.13000000     0.76229357     0.42564718
     0.13000000     0.79933061     0.42564718
     0.13000000     0.83636765     0.42564718
     0.13000000     0.87340469     0.42564718
     0.13000000     0.91044172     0.42564718
     0.13000000     0.94747876     0.42564718
     0.13000000     0.98451580     0.42564718
     0.15000000     0.02155283     0.42564718
     0.15000000     0.05858987     0.42564718
     0.15000000     0.09562691     0.42564718
     0.15000000     0.13266395     0.42564718
     0.15000000     0.16970098     0.42564718
     0.15000000     0.20673802     0.42564718
     0.15000000     0.24377506     0.42564718
     0.15000000     0.28081209     0.42564718
     0.15000000     0.31784913     0.42564718
     0.15000000     0.35488617     0.42564718
     0.15000000     0.39192320     0.42564718
     0.15000000     0.42896024     0.42564718
     0.15000000     0.46599728     0.42564718
     0.15000000     0.50303432     0.42564718
     0.15000000     0.54007135     0.42564718
     0.15000000     0.57710839     0.42564718
     0.15000000     0.61414543     0.42564718
     0.15000000     0.65118246     0.42564718
     0.15000000     0.68821950     0.42564718
     0.15000000     0.72525654     0.42564718
     0.15000000     0.76229357     0.42564718
     0.15000000     0.79933061     0.42564718
     0.15000000     0.83636765     0.42564718
     0.15000000     0.87340469     0.42564718
     0.15000000     0.91044172     0.42564718
     0.15000000     0.94747876     0.42564718
     0.15000000     0.98451580     0.42564718
     0.17000000     0.02155283     0.42564718
     0.17000000     0.05858987     0.42564718
     0.17000000     0.09562691     0.42564718
     0.17000000     0.13266395     0.42564718
     0.17000000     0.16970098     0.42564718
     0.17000000     0.20673802     0.42564718
     0.17000000     0.24377506     0.42564718
     0.17000000     0.28081209     0.42564718
     0.17000000     0.31784913     0.42564718
     0.17000000     0.35488617     0.42564718
     0.17000000     0.39192320     0.42564718
     0.17000000     0.42896024     0.42564718
     0.17000000     0.46599728     0.42564718
     0.17000000     0.50303432     0.42564718
     0.17000000     0.54007135     0.42564718
     0.17000000     0.57710839     0.42564718
     0.17000000     0.61414543     0.42564718
     0.17000000     0.65118246     0.42564718
     0.17000000     0.68821950     0.42564718
     0.17000000     0.72525654     0.42564718
     0.17000000     0.76229357     0.42564718
     0.17000000     0.79933061     0.42564718
     0.17000000     0.83636765     0.42564718
     0.17000000     0.87340469     0.42564718
     0.17000000     0.91044172     0.42564718
     0.17000000     0.94747876     0.42564718
     0.17000000     0.98451580     0.42564718
     0.19000000     0.02155283     0.42564718
     0.19000000     0.05858987     0.42564718
     0.19000000     0.09562691     0.42564718
     0.19000000     0.13266395     0.42564718
     0.19000000     0.16970098     0.42564718
     0.19000000     0.20673802     0.42564718
     0.19000000     0.24377506     0.42564718
     0.19000000     0.28081209     0.42564718
     0.19000000     0.31784913     0.42564718
     0.19000000     0.35488617     0.42564718
     0.19000000     0.39192320     0.42564718
     0.19000000     0.42896024     0.42564718
     0.19000000     0.46599728     0.42564718
     0.19000000     0.50303432     0.42564718
     0.19000000     0.54007135     0.42564718
     0.19000000     0.57710839     0.42564718
     0.19000000     0.61414543     0.42564718
     0.19000000     0.65118246     0.42564718
     0.19000000     0.68821950     0.42564718
     0.19000000     0.72525654     0.42564718
     0.19000000     0.76229357     0.42564718
     0.19000000     0.79933061     0.42564718
     0.19000000     0.83636765     0.42564718
     0.19000000     0.87340469     0.42564718
     0.19000000     0.91044172     0.42564718
     0.19000000     0.94747876     0.42564718
     0.19000000     0.98451580     0.42564718
     0.21000000     0.02155283     0.42564718
     0.21000000     0.05858987     0.42564718
     0.21000000     0.09562691     0.42564718
     0.21000000     0.13266395     0.42564718
     0.21000000     0.16970098     0.42564718
     0.21000000     0.20673802     0.42564718
     0.21000000     0.24377506     0.42564718
     0.21000000     0.28081209     0.42564718
     0.21000000     0.31784913     0.42564718
     0.21000000     0.35488617     0.42564718
     0.21000000     0.39192320     0.42564718
     0.21000000     0.42896024     0.42564718
     0.21000000     0.46599728     0.42564718
     0.21000000     0.50303432     0.42564718
     0.21000000     0.54007135     0.42564718
     0.21000000     0.57710839     0.42564718
     0.21000000     0.61414543     0.42564718
     0.21000000     0.65118246     0.42564718
     0.21000000     0.68821950     0.42564718
     0.21000000     0.72525654     0.42564718
     0.21000000     0.76229357     0.42564718
     0.21000000     0.79933061     0.42564718
     0.21000000     0.83636765     0.42564718
     0.21000000     0.87340469     0.42564718
     0.21000000     0.91044172     0.42564718
     0.21000000     0.94747876     0.42564718
     0.21000000     0.98451580     0.42564718
     0.23000000     0.02155283     0.42564718
     0.23000000     0.05858987     0.42564718
     0.23000000     0.09562691     0.42564718
     0.23000000     0.13266395     0.42564718
     0.23000000     0.16970098     0.42564718
     0.23000000     0.20673802     0.42564718
     0.23000000     0.24377506     0.42564718
     0.23000000     0.28081209     0.42564718
     0.23000000     0.31784913     0.42564718
     0.23000000     0.35488617     0.42564718
     0.23000000     0.39192320     0.42564718
     0.23000000     0.42896024     0.42564718
     0.23000000     0.46599728     0.42564718
     0.23000000     0.50303432     0.42564718
     0.23000000     0.54007135     0.42564718
     0.23000000     0.57710839     0.42564718
     0.23000000     0.61414543     0.42564718
     0.23000000     0.65118246     0.42564718
     0.23000000     0.68821950     0.42564718
     0.23000000     0.72525654     0.42564718
     0.23000000     0.76229357     0.42564718
     0.23000000     0.79933061     0.42564718
     0.23000000     0.83636765     0.42564718
     0.23000000     0.87340469     0.42564718
     0.23000000     0.91044172     0.42564718
     0.23000000     0.94747876     0.42564718
     0.23000000     0.98451580     0.42564718
     0.25000000     0.02155283     0.42564718
     0.25000000     0.05858987     0.42564718
     0.25000000     0.09562691     0.42564718
     0.25000000     0.13266395     0.42564718
     0.25000000     0.16970098     0.42564718
     0.25000000     0.20673802     0.42564718
     0.25000000     0.24377506     0.42564718
     0.25000000     0.28081209     0.42564718
     0.25000000     0.31784913     0.42564718
     0.25000000     0.35488617     0.42564718
     0.25000000     0.39192320     0.42564718
     0.25000000     0.42896024     0.42564718
     0.25000000     0.46599728     0.42564718
     0.25000000     0.50303432     0.42564718
     0.25000000     0.54007135     0.42564718
     0.25000000     0.57710839     0.42564718
     0.25000000     0.61414543     0.42564718
     0.25000000     0.65118246     0.42564718
     0.25000000     0.68821950     0.42564718
     0.25000000     0.72525654     0.42564718
     0.25000000     0.76229357     0.42564718
     0.25000000     0.79933061     0.42564718
     0.25000000     0.83636765     0.42564718
     0.25000000     0.87340469     0.42564718
     0.25000000     0.91044172     0.42564718
     0.25000000     0.94747876     0.42564718
     0.25000000     0.98451580     0.42564718
     0.27000000     0.02155283     0.42564718
     0.27000000     0.05858987     0.42564718
     0.27000000     0.09562691     0.42564718
     0.27000000     0.13266395     0.42564718
     0.27000000     0.16970098     0.42564718
     0.27000000     0.20673802     0.42564718
     0.27000000     0.24377506     0.42564718
     0.27000000     0.28081209     0.42564718
     0.27000000     0.31784913     0.42564718
     0.27000000     0.35488617     0.42564718
     0.27000000     0.39192320     0.42564718
     0.27000000     0.42896024     0.42564718
     0.27000000     0.46599728     0.42564718
     0.27000000     0.50303432     0.42564718
     0.27000000     0.54007135     0.42564718
     0.27000000     0.57710839     0.42564718
     0.27000000     0.61414543     0.42564718
     0.27000000     0.65118246     0.42564718
     0.27000000     0.68821950     0.42564718
     0.27000000     0.72525654     0.42564718
     0.27000000     0.76229357     0.42564718
     0.27000000     0.79933061     0.42564718
     0.27000000     0.83636765     0.42564718
     0.27000000     0.87340469     0.42564718
     0.27000000     0.91044172     0.42564718
     0.27000000     0.94747876     0.42564718
     0.27000000     0.98451580     0.42564718
     0.29000000     0.02155283     0.42564718
     0.29000000     0.05858987     0.42564718
     0.29000000     0.09562691     0.42564718
     0.29000000     0.13266395     0.42564718
     0.29000000     0.16970098     0.42564718
     0.29000000     0.20673802     0.42564718
     0.29000000     0.24377506     0.42564718
     0.29000000     0.28081209     0.42564718
     0.29000000     0.31784913     0.42564718
     0.29000000     0.35488617     0.42564718
     0.29000000     0.39192320     0.42564718
     0.29000000     0.42896024     0.42564718
     0.29000000     0.46599728     0.42564718
     0.29000000     0.50303432     0.42564718
     0.29000000     0.54007135     0.42564718
     0.29000000     0.57710839     0.42564718
     0.29000000     0.61414543     0.42564718
     0.29000000     0.65118246     0.42564718
     0.29000000     0.68821950     0.42564718
     0.29000000     0.72525654     0.42564718
     0.29000000     0.76229357     0.42564718
     0.29000000     0.79933061     0.42564718
     0.29000000     0.83636765     0.42564718
     0.29000000     0.87340469     0.42564718
     0.29000000     0.91044172     0.42564718
     0.29000000     0.94747876     0.42564718
     0.29000000     0.98451580     0.42564718
     0.31000000     0.02155283     0.42564718
     0.31000000     0.05858987     0.42564718
     0.31000000     0.09562691     0.42564718
     0.31000000     0.13266395     0.42564718
     0.31000000     0.16970098     0.42564718
     0.31000000     0.20673802     0.42564718
     0.31000000     0.24377506     0.42564718
     0.31000000     0.28081209     0.42564718
     0.31000000     0.31784913     0.42564718
     0.31000000     0.35488617     0.42564718
     0.31000000     0.39192320     0.42564718
     0.31000000     0.42896024     0.42564718
     0.31000000     0.46599728     0.42564718
     0.31000000     0.50303432     0.42564718
     0.31000000     0.54007135     0.42564718
     0.31000000     0.57710839     0.42564718
     0.31000000     0.61414543     0.42564718
     0.31000000     0.65118246     0.42564718
     0.31000000     0.68821950     0.42564718
     0.31000000     0.72525654     0.42564718
     0.31000000     0.76229357     0.42564718
     0.31000000     0.79933061     0.42564718
     0.31000000     0.83636765     0.42564718
     0.31000000     0.87340469     0.42564718
     0.31000000     0.91044172     0.42564718
     0.31000000     0.94747876     0.42564718
     0.31000000     0.98451580     0.42564718
     0.33000000     0.02155283     0.42564718
     0.33000000     0.05858987     0.42564718
     0.33000000     0.09562691     0.42564718
     0.33000000     0.13266395     0.42564718
     0.33000000     0.16970098     0.42564718
     0.33000000     0.20673802     0.42564718
     0.33000000     0.24377506     0.42564718
     0.33000000     0.28081209     0.42564718
     0.33000000     0.31784913     0.42564718
     0.33000000     0.35488617     0.42564718
     0.33000000     0.39192320     0.42564718
     0.33000000     0.42896024     0.42564718
     0.33000000     0.46599728     0.42564718
     0.33000000     0.50303432     0.42564718
     0.33000000     0.54007135     0.42564718
     0.33000000     0.57710839     0.42564718
     0.33000000     0.61414543     0.42564718
     0.33000000     0.65118246     0.42564718
     0.33000000     0.68821950     0.42564718
     0.33000000     0.72525654     0.42564718
     0.33000000     0.76229357     0.42564718
     0.33000000     0.79933061     0.42564718
     0.33000000     0.83636765     0.42564718
     0.33000000     0.87340469     0.42564718
     0.33000000     0.91044172     0.42564718
     0.33000000     0.94747876     0.42564718
     0.33000000     0.98451580     0.42564718
     0.35000000     0.02155283     0.42564718
     0.35000000     0.05858987     0.42564718
     0.35000000     0.09562691     0.42564718
     0.35000000     0.13266395     0.42564718
     0.35000000     0.16970098     0.42564718
     0.35000000     0.20673802     0.42564718
     0.35000000     0.24377506     0.42564718
     0.35000000     0.28081209     0.42564718
     0.35000000     0.31784913     0.42564718
     0.35000000     0.35488617     0.42564718
     0.35000000     0.39192320     0.42564718
     0.35000000     0.42896024     0.42564718
     0.35000000     0.46599728     0.42564718
     0.35000000     0.50303432     0.42564718
     0.35000000     0.54007135     0.42564718
     0.35000000     0.57710839     0.42564718
     0.35000000     0.61414543     0.42564718
     0.35000000     0.65118246     0.42564718
     0.35000000     0.68821950     0.42564718
     0.35000000     0.72525654     0.42564718
     0.35000000     0.76229357     0.42564718
     0.35000000     0.79933061     0.42564718
     0.35000000     0.83636765     0.42564718
     0.35000000     0.87340469     0.42564718
     0.35000000     0.91044172     0.42564718
     0.35000000     0.94747876     0.42564718
     0.35000000     0.98451580     0.42564718
     0.37000000     0.02155283     0.42564718
     0.37000000     0.05858987     0.42564718
     0.37000000     0.09562691     0.42564718
     0.37000000     0.13266395     0.42564718
     0.37000000     0.16970098     0.42564718
     0.37000000     0.20673802     0.42564718
     0.37000000     0.24377506     0.42564718
     0.37000000     0.28081209     0.42564718
     0.37000000     0.31784913     0.42564718
     0.37000000     0.35488617     0.42564718
     0.37000000     0.39192320     0.42564718
     0.37000000     0.42896024     0.42564718
     0.37000000     0.46599728     0.42564718
     0.37000000     0.50303432     0.42564718
     0.37000000     0.54007135     0.42564718
     0.37000000     0.57710839     0.42564718
     0.37000000     0.61414543     0.42564718
     0.37000000     0.65118246     0.42564718
     0.37000000     0.68821950     0.42564718
     0.37000000     0.72525654     0.42564718
     0.37000000     0.76229357     0.42564718
     0.37000000     0.79933061     0.42564718
     0.37000000     0.83636765     0.42564718
     0.37000000     0.87340469     0.42564718
     0.37000000     0.91044172     0.42564718
     0.37000000     0.94747876     0.42564718
     0.37000000     0.98451580     0.42564718
     0.39000000     0.02155283     0.42564718
     0.39000000     0.05858987     0.42564718
     0.39000000     0.09562691     0.42564718
     0.39000000     0.13266395     0.42564718
     0.39000000     0.16970098     0.42564718
     0.39000000     0.20673802     0.42564718
     0.39000000     0.24377506     0.42564718
     0.39000000     0.28081209     0.42564718
     0.39000000     0.31784913     0.42564718
     0.39000000     0.35488617     0.42564718
     0.39000000     0.39192320     0.42564718
     0.39000000     0.42896024     0.42564718
     0.39000000     0.46599728     0.42564718
     0.39000000     0.50303432     0.42564718
     0.39000000     0.54007135     0.42564718
     0.39000000     0.57710839     0.42564718
     0.39000000     0.61414543     0.42564718
     0.39000000     0.65118246     0.42564718
     0.39000000     0.68821950     0.42564718
     0.39000000     0.72525654     0.42564718
     0.39000000     0.76229357     0.42564718
     0.39000000     0.79933061     0.42564718
     0.39000000     0.83636765     0.42564718
     0.39000000     0.87340469     0.42564718
     0.39000000     0.91044172     0.42564718
     0.39000000     0.94747876     0.42564718
     0.39000000     0.98451580     0.42564718
     0.41000000     0.02155283     0.42564718
     0.41000000     0.05858987     0.42564718
     0.41000000     0.09562691     0.42564718
     0.41000000     0.13266395     0.42564718
     0.41000000     0.16970098     0.42564718
     0.41000000     0.20673802     0.42564718
     0.41000000     0.24377506     0.42564718
     0.41000000     0.28081209     0.42564718
     0.41000000     0.31784913     0.42564718
     0.41000000     0.35488617     0.42564718
     0.41000000     0.39192320     0.42564718
     0.41000000     0.42896024     0.42564718
     0.41000000     0.46599728     0.42564718
     0.41000000     0.50303432     0.42564718
     0.41000000     0.54007135     0.42564718
     0.41000000     0.57710839     0.42564718
     0.41000000     0.61414543     0.42564718
     0.41000000     0.65118246     0.42564718
     0.41000000     0.68821950     0.42564718
     0.41000000     0.72525654     0.42564718
     0.41000000     0.76229357     0.42564718
     0.41000000     0.79933061     0.42564718
     0.41000000     0.83636765     0.42564718
     0.41000000     0.87340469     0.42564718
     0.41000000     0.91044172     0.42564718
     0.41000000     0.94747876     0.42564718
     0.41000000     0.98451580     0.42564718
     0.43000000     0.02155283     0.42564718
     0.43000000     0.05858987     0.42564718
     0.43000000     0.09562691     0.42564718
     0.43000000     0.13266395     0.42564718
     0.43000000     0.16970098     0.42564718
     0.43000000     0.20673802     0.42564718
     0.43000000     0.24377506     0.42564718
     0.43000000     0.28081209     0.42564718
     0.43000000     0.31784913     0.42564718
     0.43000000     0.35488617     0.42564718
     0.43000000     0.39192320     0.42564718
     0.43000000     0.42896024     0.42564718
     0.43000000     0.46599728     0.42564718
     0.43000000     0.50303432     0.42564718
     0.43000000     0.54007135     0.42564718
     0.43000000     0.57710839     0.42564718
     0.43000000     0.61414543     0.42564718
     0.43000000     0.65118246     0.42564718
     0.43000000     0.68821950     0.42564718
     0.43000000     0.72525654     0.42564718
     0.43000000     0.76229357     0.42564718
     0.43000000     0.79933061     0.42564718
     0.43000000     0.83636765     0.42564718
     0.43000000     0.87340469     0.42564718
     0.43000000     0.91044172     0.42564718
     0.43000000     0.94747876     0.42564718
     0.43000000     0.98451580     0.42564718
     0.45000000     0.02155283     0.42564718
     0.45000000     0.05858987     0.42564718
     0.45000000     0.09562691     0.42564718
     0.45000000     0.13266395     0.42564718
     0.45000000     0.16970098     0.42564718
     0.45000000     0.20673802     0.42564718
     0.45000000     0.24377506     0.42564718
     0.45000000     0.28081209     0.42564718
     0.45000000     0.31784913     0.42564718
     0.45000000     0.35488617     0.42564718
     0.45000000     0.39192320     0.42564718
     0.45000000     0.42896024     0.42564718
     0.45000000     0.46599728     0.42564718
     0.45000000     0.50303432     0.42564718
     0.45000000     0.54007135     0.42564718
     0.45000000     0.57710839     0.42564718
     0.45000000     0.61414543     0.42564718
     0.45000000     0.65118246     0.42564718
     0.45000000     0.68821950     0.42564718
     0.45000000     0.72525654     0.42564718
     0.45000000     0.76229357     0.42564718
     0.45000000     0.79933061     0.42564718
     0.45000000     0.83636765     0.42564718
     0.45000000     0.87340469     0.42564718
     0.45000000     0.91044172     0.42564718
     0.45000000     0.94747876     0.42564718
     0.45000000     0.98451580     0.42564718
     0.47000000     0.02155283     0.42564718
     0.47000000     0.05858987     0.42564718
     0.47000000     0.09562691     0.42564718
     0.47000000     0.13266395     0.42564718
     0.47000000     0.16970098     0.42564718
     0.47000000     0.20673802     0.42564718
     0.47000000     0.24377506     0.42564718
     0.47000000     0.28081209     0.42564718
     0.47000000     0.31784913     0.42564718
     0.47000000     0.35488617     0.42564718
     0.47000000     0.39192320     0.42564718
     0.47000000     0.42896024     0.42564718
     0.47000000     0.46599728     0.42564718
     0.47000000     0.50303432     0.42564718
     0.47000000     0.54007135     0.42564718
     0.47000000     0.57710839     0.42564718
     0.47000000     0.61414543     0.42564718
     0.47000000     0.65118246     0.42564718
     0.47000000     0.68821950     0.42564718
     0.47000000     0.72525654     0.42564718
     0.47000000     0.76229357     0.42564718
     0.47000000     0.79933061     0.42564718
     0.47000000     0.83636765     0.42564718
     0.47000000     0.87340469     0.42564718
     0.47000000     0.91044172     0.42564718
     0.47000000     0.94747876     0.42564718