Generated by Twist2D
    1.0
     128.58298576       0.00000000       0.00000000
       0.00000000      97.47069923       0.00000000
       0.00000000       0.00000000      20.00000000
    P
    6868
Direct
     0.01282051     0.02645121     0.42564718
     0.01282051     0.07190575     0.42564718
     0.01282051     0.11736030     0.42564718
     0.01282051     0.16281484     0.42564718
     0.01282051     0.20826939     0.42564718
     0.01282051     0.25372393     0.42564718
     0.01282051     0.29917848     0.42564718
     0.01282051     0.34463302     0.42564718
     0.01282051     0.39008757     0.42564718
     0.01282051     0.43554211     0.42564718
     0.01282051     0.48099666     0.42564718
     0.01282051     0.52645121     0.42564718
     0.01282051     0.57190575     0.42564718
     0.01282051     0.61736030     0.42564718
     0.01282051     0.66281484     0.42564718
     0.01282051     0.70826939     0.42564718
     0.01282051     0.75372393     0.42564718
     0.01282051     0.79917848     0.42564718
     0.01282051     0.84463302     0.42564718
     0.01282051     0.89008757     0.42564718
     0.01282051     0.93554211     0.42564718
     0.01282051     0.98099666     0.42564718
     0.03846154     0.02645121     0.42564718
     0.03846154     0.07190575     0.42564718
     0.03846154     0.11736030     0.42564718
     0.03846154     0.16281484     0.42564718
     0.03846154     0.20826939     0.42564718
     0.03846154     0.25372393     0.42564718
     0.03846154     0.29917848     0.42564718
     0.03846154     0.34463302     0.42564718
     0.03846154     0.39008757     0.42564718
     0.03846154     0.43554211     0.42564718
     0.03846154     0.48099666     0.42564718
     0.03846154     0.52645121     0.42564718
     0.03846154     0.57190575     0.42564718
     0.03846154     0.61736030     0.42564718
     0.03846154     0.66281484     0.42564718
     0.03846154     0.70826939     0.42564718
     0.03846154     0.75372393     0.42564718
     0.03846154     0.79917848     0.42564718
     0.03846154     0.84463302     0.42564718
     0.03846154     0.89008757     0.42564718
     0.03846154     0.93554211     0.42564718
     0.03846154     0.98099666     0.42564718
     0.06410256     0.02645121     0.42564718
     0.06410256     0.07190575     0.42564718
     0.06410256     0.11736030     0.42564718
     0.06410256     0.16281484     0.42564718
     0.06410256     0.20826939     0.42564718
     0.06410256     0.25372393     0.42564718
     0.06410256     0.29917848     0.42564718
     0.06410256     0.34463302     0.42564718
     0.06410256     0.39008757     0.42564718
     0.06410256     0.43554211     0.42564718
     0.06410256     0.48099666     0.42564718
     0.06410256     0.52645121     0.42564718
     0.06410256     0.57190575     0.42564718
     0.06410256     0.61736030     0.42564718
     0.06410256     0.66281484     0.42564718
     0.06410256     0.70826939     0.42564718
     0.06410256     0.75372393     0.42564718
     0.06410256     0.79917848     0.42564718
     0.06410256     0.84463302     0.42564718
     0.06410256     0.89008757     0.42564718
     0.06410256     0.93554211     0.42564718
     0.06410256     0.98099666     0.42564718
     0.08974359     0.02645121     0.42564718
     0.08974359     0.07190575     0.42564718
     0.08974359     0.11736030     0.42564718
     0.08974359     0.16281484     0.42564718
     0.08974359     0.20826939     0.42564718
     0.08974359     0.25372393     0.42564718
     0.08974359     0.29917848     0.42564718
     0.08974359     0.34463302     0.42564718
     0.08974359     0.39008757     0.42564718
     0.08974359     0.43554211     0.42564718
     0.08974359     0.48099666     0.42564718
     0.08974359     0.52645121     0.42564718
     0.08974359     0.57190575     0.42564718
     0.08974359     0.61736030     0.42564718
     0.08974359     0.66281484     0.42564718
     0.08974359     0.70826939     0.42564718
     0.08974359     0.75372393     0.42564718
     0.08974359     0.79917848     0.42564718
     0.08974359     0.84463302     0.42564718
     0.08974359     0.89008757     0.42564718
     0.08974359     0.93554211     0.42564718
     0.08974359     0.98099666     0.42564718
     0.11538462     0.02645121     0.42564718
     0.11538462     0.07190575     0.42564718
     0.11538462     0.11736030     0.42564718
     0.11538462     0.16281484     0.42564718
     0.11538462     0.20826939     0.42564718
     0.11538462     0.25372393     0.42564718
     0.11538462     0.29917848     0.42564718
     0.11538462     0.34463302     0.42564718
     0.11538462     0.39008757     0.42564718
     0.11538462     0.43554211     0.42564718
     0.11538462     0.48099666     0.42564718
     0.11538462     0.52645121     0.42564718
     0.11538462     0.57190575     0.42564718
     0.11538462     0.61736030     0.42564718
     0.11538462     0.66281484     0.42564718
     0.11538462     0.70826939     0.42564718
     0.11538462     0.75372393     0.42564718
     0.11538462     0.79917848     0.42564718
     0.11538462     0.84463302     0.42564718
     0.11538462     0.89008757     0.42564718
     0.11538462     0.93554211     0.42564718
     0.11538462     0.98099666     0.42564718
     0.14102564     0.02645121     0.42564718
     0.14102564     0.07190575     0.42564718
     0.14102564     0.11736030     0.42564718
     0.14102564     0.16281484     0.42564718
     0.14102564     0.20826939     0.42564718
     0.14102564     0.25372393     0.42564718
     0.14102564     0.29917848     0.42564718
     0.14102564     0.34463302     0.42564718
     0.14102564     0.39008757     0.42564718
     0.14102564     0.43554211     0.42564718
     0.14102564     0.48099666     0.42564718
     0.14102564     0.52645121     0.42564718
     0.14102564     0.57190575     0.42564718
     0.14102564     0.61736030     0.42564718
     0.14102564     0.66281484     0.42564718
     0.14102564     0.70826939     0.42564718
     0.14102564     0.75372393     0.42564718
     0.14102564     0.79917848     0.42564718
     0.14102564     0.84463302     0.42564718
     0.14102564     0.89008757     0.42564718
     0.14102564     0.93554211     0.42564718
     0.14102564     0.98099666     0.42564718
     0.16666667     0.02645121     0.42564718
     0.16666667     0.07190575     0.42564718
     0.16666667     0.11736030     0.42564718
     0.16666667     0.16281484     0.42564718
     0.16666667     0.20826939     0.42564718
     0.16666667     0.25372393     0.42564718
     0.16666667     0.29917848     0.42564718
     0.16666667     0.34463302     0.42564718
     0.16666667     0.39008757     0.42564718
     0.16666667     0.43554211     0.42564718
     0.16666667     0.48099666     0.42564718
     0.16666667     0.52645121     0.42564718
     0.16666667     0.57190575     0.42564718
     0.16666667     0.61736030     0.42564718
     0.16666667     0.66281484     0.42564718
     0.16666667     0.70826939     0.42564718
     0.16666667     0.75372393     0.42564718
     0.16666667     0.79917848     0.42564718
     0.16666667     0.84463302     0.42564718
     0.16666667     0.89008757     0.42564718
     0.16666667     0.93554211     0.42564718
     0.16666667     0.98099666     0.42564718
     0.19230769     0.02645121     0.42564718
     0.19230769     0.07190575     0.42564718
     0.19230769     0.11736030     0.42564718
     0.19230769     0.16281484     0.42564718
     0.19230769     0.20826939     0.42564718
     0.19230769     0.25372393     0.42564718
     0.19230769     0.29917848     0.42564718
     0.19230769     0.34463302     0.42564718
     0.19230769     0.39008757     0.42564718
     0.19230769     0.43554211     0.42564718
     0.19230769     0.48099666     0.42564718
     0.19230769     0.52645121     0.42564718
     0.19230769     0.57190575     0.42564718
     0.19230769     0.61736030     0.42564718
     0.19230769     0.66281484     0.42564718
     0.19230769     0.70826939     0.42564718
     0.19230769     0.75372393     0.42564718
     0.19230769     0.79917848     0.42564718
     0.19230769     0.84463302     0.42564718
     0.19230769     0.89008757     0.42564718
     0.19230769     0.93554211     0.42564718
     0.19230769     0.98099666     0.42564718
     0.21794872     0.02645121     0.42564718
     0.21794872     0.07190575     0.42564718
     0.21794872     0.11736030     0.42564718
     0.21794872     0.16281484     0.42564718
     0.21794872     0.20826939     0.42564718
     0.21794872     0.25372393     0.42564718
     0.21794872     0.29917848     0.42564718
     0.21794872     0.34463302     0.42564718
     0.21794872     0.39008757     0.42564718
     0.21794872     0.43554211     0.42564718
     0.21794872     0.48099666     0.42564718
     0.21794872     0.52645121     0.42564718
     0.21794872     0.57190575     0.42564718
     0.21794872     0.61736030     0.42564718
     0.21794872     0.66281484     0.42564718
     0.21794872     0.70826939     0.42564718
     0.21794872     0.75372393     0.42564718
     0.21794872     0.79917848     0.42564718
     0.21794872     0.84463302     0.42564718
     0.21794872     0.89008757     0.42564718
     0.21794872     0.93554211     0.42564718
     0.21794872     0.98099666     0.42564718
     0.24358974     0.02645121     0.42564718
     0.24358974     0.07190575     0.42564718
     0.24358974     0.11736030     0.42564718
     0.24358974     0.16281484     0.42564718
     0.24358974     0.20826939     0.42564718
     0.24358974     0.25372393     0.42564718
     0.24358974     0.29917848     0.42564718
     0.24358974     0.34463302     0.42564718
     0.24358974     0.39008757     0.42564718
     0.24358974     0.43554211     0.42564718
     0.24358974     0.48099666     0.42564718
     0.24358974     0.52645121     0.42564718
     0.24358974     0.57190575     0.42564718
     0.24358974     0.61736030     0.42564718
     0.24358974     0.66281484     0.42564718
     0.24358974     0.70826939     0.42564718
     0.24358974     0.75372393     0.42564718
     0.24358974     0.79917848     0.42564718
     0.24358974     0.84463302     0.42564718
     0.24358974     0.89008757     0.42564718
     0.24358974     0.93554211     0.42564718
     0.24358974     0.98099666     0.42564718
     0.26923077     0.02645121     0.42564718
     0.26923077     0.07190575     0.42564718
     0.26923077     0.11736030     0.42564718
     0.26923077     0.16281484     0.42564718
     0.26923077     0.20826939     0.42564718
     0.26923077     0.25372393     0.42564718
     0.26923077     0.29917848     0.42564718
     0.26923077     0.34463302     0.42564718
     0.26923077     0.39008757     0.42564718
     0.26923077     0.43554211     0.42564718
     0.26923077     0.48099666     0.42564718
     0.26923077     0.52645121     0.42564718
     0.26923077     0.57190575     0.42564718
     0.26923077     0.61736030     0.42564718
     0.26923077     0.66281484     0.42564718
     0.26923077     0.70826939     0.42564718
     0.26923077     0.75372393     0.42564718
     0.26923077     0.79917848     0.42564718
     0.26923077     0.84463302     0.42564718
     0.26923077     0.89008757     0.42564718
     0.26923077     0.93554211     0.42564718
     0.26923077     0.98099666     0.42564718
     0.29487179     0.02645121     0.42564718
     0.29487179     0.07190575     0.42564718
     0.29487179     0.11736030     0.42564718
     0.29487179     0.16281484     0.42564718
     0.29487179     0.20826939     0.42564718
     0.29487179     0.25372393     0.42564718
     0.29487179     0.29917848     0.42564718
     0.29487179     0.34463302     0.42564718
     0.29487179     0.39008757     0.42564718
     0.29487179     0.43554211     0.42564718
     0.29487179     0.48099666     0.42564718
     0.29487179     0.52645121     0.42564718
     0.29487179     0.57190575     0.42564718
     0.29487179     0.61736030     0.42564718
     0.29487179     0.66281484     0.42564718
     0.29487179     0.70826939     0.42564718
     0.29487179     0.75372393     0.42564718
     0.29487179     0.79917848     0.42564718
     0.29487179     0.84463302     0.42564718
     0.29487179     0.89008757     0.42564718
     0.29487179     0.93554211     0.42564718
     0.29487179     0.98099666     0.42564718
     0.32051282     0.02645121     0.42564718
     0.32051282     0.07190575     0.42564718
     0.32051282     0.11736030     0.42564718
     0.32051282     0.16281484     0.42564718
     0.32051282     0.20826939     0.42564718
     0.32051282     0.25372393     0.42564718
     0.32051282     0.29917848     0.42564718
     0.32051282     0.34463302     0.42564718
     0.32051282     0.39008757     0.42564718
     0.32051282     0.43554211     0.42564718
     0.32051282     0.48099666     0.42564718
     0.32051282     0.52645121     0.42564718
     0.32051282     0.57190575     0.42564718
     0.32051282     0.61736030     0.42564718
     0.32051282     0.66281484     0.42564718
     0.32051282     0.70826939     0.42564718
     0.32051282     0.75372393     0.42564718
     0.32051282     0.79917848     0.42564718
     0.32051282     0.84463302     0.42564718
     0.32051282     0.89008757     0.42564718
     0.32051282     0.93554211     0.42564718
     0.32051282     0.98099666     0.42564718
     0.34615385     0.02645121     0.42564718
     0.34615385     0.07190575     0.42564718
     0.34615385     0.11736030     0.42564718
     0.34615385     0.16281484     0.42564718
     0.34615385     0.20826939     0.42564718
     0.34615385     0.25372393     0.42564718
     0.34615385     0.29917848     0.42564718
     0.34615385     0.34463302     0.42564718
     0.34615385     0.39008757     0.42564718
     0.34615385     0.43554211     0.42564718
     0.34615385     0.48099666     0.42564718
     0.34615385     0.52645121     0.42564718
     0.34615385     0.57190575     0.42564718
     0.34615385     0.61736030     0.42564718
     0.34615385     0.66281484     0.42564718
     0.34615385     0.70826939     0.42564718
     0.34615385     0.75372393     0.42564718
     0.34615385     0.79917848     0.42564718
     0.34615385     0.84463302     0.42564718
     0.34615385     0.89008757     0.42564718
     0.34615385     0.93554211     0.42564718
     0.34615385     0.98099666     0.42564718
     0.37179487     0.02645121     0.42564718
     0.37179487     0.07190575     0.42564718
     0.37179487     0.11736030     0.42564718
     0.37179487     0.16281484     0.42564718
     0.37179487     0.20826939     0.42564718
     0.37179487     0.25372393     0.42564718
     0.37179487     0.29917848     0.42564718
     0.37179487     0.34463302     0.42564718
     0.37179487     0.39008757     0.42564718
     0.37179487     0.43554211     0.42564718
     0.37179487     0.48099666     0.42564718
     0.37179487     0.52645121     0.42564718
     0.37179487     0.57190575     0.42564718
     0.37179487     0.61736030     0.42564718
     0.37179487     0.66281484     0.42564718
     0.37179487     0.70826939     0.42564718
     0.37179487     0.75372393     0.42564718
     0.37179487     0.79917848     0.42564718
     0.37179487     0.84463302     0.42564718
     0.37179487     0.89008757     0.42564718
     0.37179487     0.93554211     0.42564718
     0.37179487     0.98099666     0.42564718
     0.39743590     0.02645121     0.42564718
     0.39743590     0.07190575     0.42564718
     0.39743590     0.11736030     0.42564718
     0.39743590     0.16281484     0.42564718
     0.39743590     0.20826939     0.42564718
     0.39743590     0.25372393     0.42564718
     0.39743590     0.29917848     0.42564718
     0.39743590     0.34463302     0.42564718
     0.39743590     0.39008757     0.42564718
     0.39743590     0.43554211     0.42564718
     0.39743590     0.48099666     0.42564718
     0.39743590     0.52645121     0.42564718
     0.39743590     0.57190575     0.42564718
     0.39743590     0.61736030     0.42564718
     0.39743590     0.66281484     0.42564718
     0.39743590     0.70826939     0.42564718
     0.39743590     0.75372393     0.42564718
     0.39743590     0.79917848     0.42564718
     0.39743590     0.84463302     0.42564718
     0.39743590     0.89008757     0.42564718
     0.39743590     0.93554211     0.42564718
     0.39743590     0.98099666     0.42564718
     0.42307692     0.02645121     0.42564718
     0.42307692     0.07190575     0.42564718
     0.42307692     0.11736030     0.42564718
     0.42307692     0.16281484     0.42564718
     0.42307692     0.20826939     0.42564718
     0.42307692     0.25372393     0.42564718
     0.42307692     0.29917848     0.42564718
     0.42307692     0.34463302     0.42564718
     0.42307692     0.39008757     0.42564718
     0.42307692     0.43554211     0.42564718
     0.42307692     0.48099666     0.42564718
     0.42307692     0.52645121     0.42564718
     0.42307692     0.57190575     0.42564718
     0.42307692     0.61736030     0.42564718
     0.42307692     0.66281484     0.42564718
     0.42307692     0.70826939     0.42564718
     0.42307692     0.75372393     0.42564718
     0.42307692     0.79917848     0.42564718
     0.42307692     0.84463302     0.42564718
     0.42307692     0.89008757     0.42564718
     0.42307692     0.93554211     0.42564718
     0.42307692     0.98099666     0.42564718
     0.44871795     0.02645121     0.42564718
     0.44871795     0.07190575     0.42564718
     0.44871795     0.11736030     0.42564718
     0.44871795     0.16281484     0.42564718
     0.44871795     0.20826939     0.42564718
     0.44871795     0.25372393     0.42564718
     0.44871795     0.29917848     0.42564718
     0.44871795     0.34463302     0.42564718
     0.44871795     0.39008757     0.42564718
     0.44871795     0.43554211     0.42564718
     0.44871795     0.48099666     0.42564718
     0.44871795     0.52645121     0.42564718
     0.44871795     0.57190575     0.42564718
     0.44871795     0.61736030     0.42564718
     0.44871795     0.66281484     0.42564718
     0.44871795     0.70826939     0.42564718
     0.44871795     0.75372393     0.42564718
     0.44871795     0.79917848     0.42564718
     0.44871795     0.84463302     0.42564718
     0.44871795     0.89008757     0.42564718
     0.44871795     0.93554211     0.42564718
     0.44871795     0.98099666     0.42564718
     0.47435897     0.02645121     0.42564718
     0.47435897     0.07190575     0.42564718
     0.47435897     0.11736030     0.42564718
     0.47435897     0.16281484     0.42564718
     0.47435897     0.20826939     0.42564718
     0.47435897     0.25372393     0.42564718
     0.47435897     0.29917848     0.42564718
     0.47435897     0.34463302     0.42564718
     0.47435897     0.39008757     0.42564718
     0.47435897     0.43554211     0.42564718
     0.47435897     0.48099666     0.42564718
     0.47435897     0.52645121     0.42564718
     0.47435897     0.57190575     0.42564718
     0.47435897     0.61736030     0.42564718
     0.47435897     0.66281484     0.42564718
     0.47435897     0.70826939     0.42564718
     0.47435897     0.75372393     0.42564718
     0.47435897     0.79917848     0.42564718
     0.47435897     0.84463302     0.42564718
     0.47435897     0.89008757     0.42564718
     0.47435897     0.93554211     0.42564718
     0.47435897     0.98099666     0.42564718
     0.50000000     0.02645121     0.42564718
     0.50000000     0.07190575     0.42564718
     0.50000000     0.11736030     0.42564718
     0.50000000     0.16281484     0.42564718
     0.50000000     0.20826939     0.42564718
     0.50000000     0.25372393     0.42564718
     0.50000000     0.29917848     0.42564718
     0.50000000     0.34463302     0.42564718
     0.50000000     0.39008757     0.42564718
     0.50000000     0.43554211     0.42564718
     0.50000000     0.48099666     0.42564718
     0.50000000     0.52645121     0.42564718
     0.50000000     0.57190575     0.42564718
     0.50000000     0.61736030     0.42564718
     0.50000000     0.66281484     0.42564718
     0.50000000     0.70826939     0.42564718
     0.50000000     0.75372393     0.42564718
     0.50000000     0.79917848     0.42564718
     0.50000000     0.84463302     0.42564718
     0.50000000     0.89008757     0.42564718
     0.50000000     0.93554211     0.42564718
     0.50000000     0.98099666     0.42564718
     0.52564103     0.02645121     0.42564718
     0.52564103     0.07190575     0.42564718
     0.52564103     0.11736030     0.42564718
     0.52564103     0.16281484     0.42564718
     0.52564103     0.20826939     0.42564718
     0.52564103     0.25372393     0.42564718
     0.52564103     0.29917848     0.42564718
     0.52564103     0.34463302     0.42564718
     0.52564103     0.39008757     0.42564718
     0.52564103     0.43554211     0.42564718
     0.52564103     0.48099666     0.42564718
     0.52564103     0.52645121     0.42564718
     0.52564103     0.57190575     0.42564718
     0.52564103     0.61736030     0.42564718
     0.52564103     0.66281484     0.42564718
     0.52564103     0.70826939     0.42564718
     0.52564103     0.75372393     0.42564718
     0.52564103     0.79917848     0.42564718
     0.52564103     0.84463302     0.42564718
     0.52564103     0.89008757     0.42564718
     0.52564103     0.93554211     0.42564718
     0.52564103     0.98099666     0.42564718
     0.55128205     0.02645121     0.42564718
     0.55128205     0.07190575     0.42564718
     0.55128205     0.11736030     0.42564718
     0.55128205     0.16281484     0.42564718
     0.55128205     0.20826939     0.42564718
     0.55128205     0.25372393     0.42564718
     0.55128205     0.29917848     0.42564718
     0.55128205     0.34463302     0.42564718
     0.55128205     0.39008757     0.42564718
     0.55128205     0.43554211     0.42564718
     0.55128205     0.48099666     0.42564718
     0.55128205     0.52645121     0.42564718
     0.55128205     0.57190575     0.42564718
     0.55128205     0.61736030     0.42564718
     0.55128205     0.66281484     0.42564718
     0.55128205     0.70826939     0.42564718
     0.55128205     0.75372393     0.42564718
     0.55128205     0.79917848     0.42564718
     0.55128205     0.84463302     0.42564718
     0.55128205     0.89008757     0.42564718
     0.55128205     0.93554211     0.42564718
     0.55128205     0.98099666     0.42564718
     0.57692308     0.02645121     0.42564718
     0.57692308     0.07190575     0.42564718
     0.57692308     0.11736030     0.42564718
     0.57692308     0.16281484     0.42564718
     0.57692308     0.20826939     0.42564718
     0.57692308     0.25372393     0.42564718
     0.57692308     0.29917848     0.42564718
     0.57692308     0.34463302     0.42564718
     0.57692308     0.39008757     0.42564718
     0.57692308     0.43554211     0.42564718
     0.57692308     0.48099666     0.42564718
     0.57692308     0.52645121     0.42564718
     0.57692308     0.57190575     0.42564718
     0.57692308     0.61736030     0.42564718
     0.57692308     0.66281484     0.42564718
     0.57692308     0.70826939     0.42564718
     0.57692308     0.75372393     0.42564718
     0.57692308     0.79917848     0.42564718
     0.57692308     0.84463302     0.42564718
     0.57692308     0.89008757     0.42564718
     0.57692308     0.93554211     0.42564718
     0.57692308     0.98099666     0.42564718
     0.60256410     0.02645121     0.42564718
     0.60256410     0.07190575     0.42564718
     0.60256410     0.11736030     0.42564718
     0.60256410     0.16281484     0.42564718
     0.60256410     0.20826939     0.42564718
     0.60256410     0.25372393     0.42564718
     0.60256410     0.29917848     0.42564718
     0.60256410     0.34463302     0.42564718
     0.60256410     0.39008757     0.42564718
     0.60256410     0.43554211     0.42564718
     0.60256410     0.48099666     0.42564718
     0.60256410     0.52645121     0.42564718
     0.60256410     0.57190575     0.42564718
     0.60256410     0.61736030     0.42564718
     0.60256410     0.66281484     0.42564718
     0.60256410     0.70826939     0.42564718
     0.60256410     0.75372393     0.42564718
     0.60256410     0.79917848     0.42564718
     0.60256410     0.84463302     0.42564718
     0.60256410     0.89008757     0.42564718
     0.60256410     0.93554211     0.42564718
     0.60256410     0.98099666     0.42564718
     0.62820513     0.02645121     0.42564718
     0.62820513     0.07190575     0.42564718
     0.62820513     0.11736030     0.42564718
     0.62820513     0.16281484     0.42564718
     0.62820513     0.20826939     0.42564718
     0.62820513     0.25372393     0.42564718
     0.62820513     0.29917848     0.42564718
     0.62820513     0.34463302     0.42564718
     0.62820513     0.39008757     0.42564718
     0.62820513     0.43554211     0.42564718
     0.62820513     0.48099666     0.42564718
     0.62820513     0.52645121     0.42564718
     0.62820513     0.57190575     0.42564718
     0.62820513     0.61736030     0.42564718
     0.62820513     0.66281484     0.42564718
     0.62820513     0.70826939     0.42564718
     0.62820513     0.75372393     0.42564718
     0.62820513     0.79917848     0.42564718
     0.62820513     0.84463302     0.42564718
     0.62820513     0.89008757     0.42564718
     0.62820513     0.93554211     0.42564718
     0.62820513     0.98099666     0.42564718
     0.65384615     0.02645121     0.42564718
     0.65384615     0.07190575     0.42564718
     0.65384615     0.11736030     0.42564718
     0.65384615     0.16281484     0.42564718
     0.65384615     0.20826939     0.42564718
     0.65384615     0.25372393     0.42564718
     0.65384615     0.29917848     0.42564718
     0.65384615     0.34463302     0.42564718
     0.65384615     0.39008757     0.42564718
     0.65384615     0.43554211     0.42564718
     0.65384615     0.48099666     0.42564718
     0.65384615     0.52645121     0.42564718
     0.65384615     0.57190575     0.42564718
     0.65384615     0.61736030     0.42564718
     0.65384615     0.66281484     0.42564718
     0.65384615     0.70826939     0.42564718
     0.65384615     0.75372393     0.42564718
     0.65384615     0.79917848     0.42564718
     0.65384615     0.84463302     0.42564718
     0.65384615     0.89008757     0.42564718
     0.65384615     0.93554211     0.42564718
     0.65384615     0.98099666     0.42564718
     0.67948718     0.02645121     0.42564718
     0.67948718     0.07190575     0.42564718
     0.67948718     0.11736030     0.42564718
     0.67948718     0.16281484     0.42564718
     0.67948718     0.20826939     0.42564718
     0.67948718     0.25372393     0.42564718
     0.67948718     0.29917848     0.42564718
     0.67948718     0.34463302     0.42564718
     0.67948718     0.39008757     0.42564718
     0.67948718     0.43554211     0.42564718
     0.67948718     0.48099666     0.42564718
     0.67948718     0.52645121     0.42564718
     0.67948718     0.57190575     0.42564718
     0.67948718     0.61736030     0.42564718
     0.67948718     0.66281484     0.42564718
     0.67948718     0.70826939     0.42564718
     0.67948718     0.75372393     0.42564718
     0.67948718     0.79917848     0.42564718
     0.67948718     0.84463302     0.42564718
     0.67948718     0.89008757     0.42564718
     0.67948718     0.93554211     0.42564718
     0.67948718     0.98099666     0.42564718
     0.70512821     0.02645121     0.42564718
     0.70512821     0.07190575     0.42564718
     0.70512821     0.11736030     0.42564718
     0.70512821     0.16281484     0.42564718
     0.70512821     0.20826939     0.42564718
     0.70512821     0.25372393     0.42564718
     0.70512821     0.29917848     0.42564718
     0.70512821     0.34463302     0.42564718
     0.70512821     0.39008757     0.42564718
     0.70512821     0.43554211     0.42564718
     0.70512821     0.48099666     0.42564718
     0.70512821     0.52645121     0.42564718
     0.70512821     0.57190575     0.42564718
     0.70512821     0.61736030     0.42564718
     0.70512821     0.66281484     0.42564718
     0.70512821     0.70826939     0.42564718
     0.70512821     0.75372393     0.42564718
     0.70512821     0.79917848     0.42564718
     0.70512821     0.84463302     0.42564718
     0.70512821     0.89008757     0.42564718
     0.70512821     0.93554211     0.42564718
     0.70512821     0.98099666     0.42564718
     0.73076923     0.02645121     0.42564718
     0.73076923     0.07190575     0.42564718
     0.73076923     0.11736030     0.42564718
     0.73076923     0.16281484     0.42564718
     0.73076923     0.20826939     0.42564718
     0.73076923     0.25372393     0.42564718
     0.73076923     0.29917848     0.42564718
     0.73076923     0.34463302     0.42564718
     0.73076923     0.39008757     0.42564718
     0.73076923     0.43554211     0.42564718
     0.73076923     0.48099666     0.42564718
     0.73076923     0.52645121     0.42564718
     0.73076923     0.57190575     0.42564718
     0.73076923     0.61736030     0.42564718
     0.73076923     0.66281484     0.42564718
     0.73076923     0.70826939     0.42564718
     0.73076923     0.75372393     0.42564718
     0.73076923     0.79917848     0.42564718
     0.73076923     0.84463302     0.42564718
     0.73076923     0.89008757     0.42564718
     0.73076923     0.93554211     0.42564718
     0.73076923     0.98099666     0.42564718
     0.75641026     0.02645121     0.42564718
     0.75641026     0.07190575     0.42564718
     0.75641026     0.11736030     0.42564718
     0.75641026     0.16281484     0.42564718
     0.75641026     0.20826939     0.42564718
     0.75641026     0.25372393     0.42564718
     0.75641026     0.29917848     0.42564718
     0.75641026     0.34463302     0.42564718
     0.75641026     0.39008757     0.42564718