Generated by Twist2D
    1.0
     125.28598613       0.00000000       0.00000000
       0.00000000      93.04021291       0.00000000
       0.00000000       0.00000000      20.00000000
    P
    6388
Direct
     0.01315789     0.02771079     0.42564718
     0.01315789     0.07532983     0.42564718
     0.01315789     0.12294888     0.42564718
     0.01315789     0.17056793     0.42564718
     0.01315789     0.21818698     0.42564718
     0.01315789     0.26580602     0.42564718
     0.01315789     0.31342507     0.42564718
     0.01315789     0.36104412     0.42564718
     0.01315789     0.40866317     0.42564718
     0.01315789     0.45628222     0.42564718
     0.01315789     0.50390126     0.42564718
     0.01315789     0.55152031     0.42564718
     0.01315789     0.59913936     0.42564718
     0.01315789     0.64675841     0.42564718
     0.01315789     0.69437745     0.42564718
     0.01315789     0.74199650     0.42564718
     0.01315789     0.78961555     0.42564718
     0.01315789     0.83723460     0.42564718
     0.01315789     0.88485364     0.42564718
     0.01315789     0.93247269     0.42564718
     0.01315789     0.98009174     0.42564718
     0.03947368     0.02771079     0.42564718
     0.03947368     0.07532983     0.42564718
     0.03947368     0.12294888     0.42564718
     0.03947368     0.17056793     0.42564718
     0.03947368     0.21818698     0.42564718
     0.03947368     0.26580602     0.42564718
     0.03947368     0.31342507     0.42564718
     0.03947368     0.36104412     0.42564718
     0.03947368     0.40866317     0.42564718
     0.03947368     0.45628222     0.42564718
     0.03947368     0.50390126     0.42564718
     0.03947368     0.55152031     0.42564718
     0.03947368     0.59913936     0.42564718
     0.03947368     0.64675841     0.42564718
     0.03947368     0.69437745     0.42564718
     0.03947368     0.74199650     0.42564718
     0.03947368     0.78961555     0.42564718
     0.03947368     0.83723460     0.42564718
     0.03947368     0.88485364     0.42564718
     0.03947368     0.93247269     0.42564718
     0.03947368     0.98009174     0.42564718
     0.06578947     0.02771079     0.42564718
     0.06578947     0.07532983     0.42564718
     0.06578947     0.12294888     0.42564718
     0.06578947     0.17056793     0.42564718
     0.06578947     0.21818698     0.42564718
     0.06578947     0.26580602     0.42564718
     0.06578947     0.31342507     0.42564718
     0.06578947     0.36104412     0.42564718
     0.06578947     0.40866317     0.42564718
     0.06578947     0.45628222     0.42564718
     0.06578947     0.50390126     0.42564718
     0.06578947     0.55152031     0.42564718
     0.06578947     0.59913936     0.42564718
     0.06578947     0.64675841     0.42564718
     0.06578947     0.69437745     0.42564718
     0.06578947     0.74199650     0.42564718
     0.06578947     0.78961555     0.42564718
     0.06578947     0.83723460     0.42564718
     0.06578947     0.88485364     0.42564718
     0.06578947     0.93247269     0.42564718
     0.06578947     0.98009174     0.42564718
     0.09210526     0.02771079     0.42564718
     0.09210526     0.07532983     0.42564718
     0.09210526     0.12294888     0.42564718
     0.09210526     0.17056793     0.42564718
     0.09210526     0.21818698     0.42564718
     0.09210526     0.26580602     0.42564718
     0.09210526     0.31342507     0.42564718
     0.09210526     0.36104412     0.42564718
     0.09210526     0.40866317     0.42564718
     0.09210526     0.45628222     0.42564718
     0.09210526     0.50390126     0.42564718
     0.09210526     0.55152031     0.42564718
     0.09210526     0.59913936     0.42564718
     0.09210526     0.64675841     0.42564718
     0.09210526     0.69437745     0.42564718
     0.09210526     0.74199650     0.42564718
     0.09210526     0.78961555     0.42564718
     0.09210526     0.83723460     0.42564718
     0.09210526     0.88485364     0.42564718
     0.09210526     0.93247269     0.42564718
     0.09210526     0.98009174     0.42564718
     0.11842105     0.02771079     0.42564718
     0.11842105     0.07532983     0.42564718
     0.11842105     0.12294888     0.42564718
     0.11842105     0.17056793     0.42564718
     0.11842105     0.21818698     0.42564718
     0.11842105     0.26580602     0.42564718
     0.11842105     0.31342507     0.42564718
     0.11842105     0.36104412     0.42564718
     0.11842105     0.40866317     0.42564718
     0.11842105     0.45628222     0.42564718
     0.11842105     0.50390126     0.42564718
     0.11842105     0.55152031     0.42564718
     0.11842105     0.59913936     0.42564718
     0.11842105     0.64675841     0.42564718
     0.11842105     0.69437745     0.42564718
     0.11842105     0.74199650     0.42564718
     0.11842105     0.78961555     0.42564718
     0.11842105     0.83723460     0.42564718
     0.11842105     0.88485364     0.42564718
     0.11842105     0.93247269     0.42564718
     0.11842105     0.98009174     0.42564718
     0.14473684     0.02771079     0.42564718
     0.14473684     0.07532983     0.42564718
     0.14473684     0.12294888     0.42564718
     0.14473684     0.17056793     0.42564718
     0.14473684     0.21818698     0.42564718
     0.14473684     0.26580602     0.42564718
     0.14473684     0.31342507     0.42564718
     0.14473684     0.36104412     0.42564718
     0.14473684     0.40866317     0.42564718
     0.14473684     0.45628222     0.42564718
     0.14473684     0.50390126     0.42564718
     0.14473684     0.55152031     0.42564718
     0.14473684     0.59913936     0.42564718
     0.14473684     0.64675841     0.42564718
     0.14473684     0.69437745     0.42564718
     0.14473684     0.74199650     0.42564718
     0.14473684     0.78961555     0.42564718
     0.14473684     0.83723460     0.42564718
     0.14473684     0.88485364     0.42564718
     0.14473684     0.93247269     0.42564718
     0.14473684     0.98009174     0.42564718
     0.17105263     0.02771079     0.42564718
     0.17105263     0.07532983     0.42564718
     0.17105263     0.12294888     0.42564718
     0.17105263     0.17056793     0.42564718
     0.17105263     0.21818698     0.42564718
     0.17105263     0.26580602     0.42564718
     0.17105263     0.31342507     0.42564718
     0.17105263     0.36104412     0.42564718
     0.17105263     0.40866317     0.42564718
     0.17105263     0.45628222     0.42564718
     0.17105263     0.50390126     0.42564718
     0.17105263     0.55152031     0.42564718
     0.17105263     0.59913936     0.42564718
     0.17105263     0.64675841     0.42564718
     0.17105263     0.69437745     0.42564718
     0.17105263     0.74199650     0.42564718
     0.17105263     0.78961555     0.42564718
     0.17105263     0.83723460     0.42564718
     0.17105263     0.88485364     0.42564718
     0.17105263     0.93247269     0.42564718
     0.17105263     0.98009174     0.42564718
     0.19736842     0.02771079     0.42564718
     0.19736842     0.07532983     0.42564718
     0.19736842     0.12294888     0.42564718
     0.19736842     0.17056793     0.42564718
     0.19736842     0.21818698     0.42564718
     0.19736842     0.26580602     0.42564718
     0.19736842     0.31342507     0.42564718
     0.19736842     0.36104412     0.42564718
     0.19736842     0.40866317     0.42564718
     0.19736842     0.45628222     0.42564718
     0.19736842     0.50390126     0.42564718
     0.19736842     0.55152031     0.42564718
     0.19736842     0.59913936     0.42564718
     0.19736842     0.64675841     0.42564718
     0.19736842     0.69437745     0.42564718
     0.19736842     0.74199650     0.42564718
     0.19736842     0.78961555     0.42564718
     0.19736842     0.83723460     0.42564718
     0.19736842     0.88485364     0.42564718
     0.19736842     0.93247269     0.42564718
     0.19736842     0.98009174     0.42564718
     0.22368421     0.02771079     0.42564718
     0.22368421     0.07532983     0.42564718
     0.22368421     0.12294888     0.42564718
     0.22368421     0.17056793     0.42564718
     0.22368421     0.21818698     0.42564718
     0.22368421     0.26580602     0.42564718
     0.22368421     0.31342507     0.42564718
     0.22368421     0.36104412     0.42564718
     0.22368421     0.40866317     0.42564718
     0.22368421     0.45628222     0.42564718
     0.22368421     0.50390126     0.42564718
     0.22368421     0.55152031     0.42564718
     0.22368421     0.59913936     0.42564718
     0.22368421     0.64675841     0.42564718
     0.22368421     0.69437745     0.42564718
     0.22368421     0.74199650     0.42564718
     0.22368421     0.78961555     0.42564718
     0.22368421     0.83723460     0.42564718
     0.22368421     0.88485364     0.42564718
     0.22368421     0.93247269     0.42564718
     0.22368421     0.98009174     0.42564718
     0.25000000     0.02771079     0.42564718
     0.25000000     0.07532983     0.42564718
     0.25000000     0.12294888     0.42564718
     0.25000000     0.17056793     0.42564718
     0.25000000     0.21818698     0.42564718
     0.25000000     0.26580602     0.42564718
     0.25000000     0.31342507     0.42564718
     0.25000000     0.36104412     0.42564718
     0.25000000     0.40866317     0.42564718
     0.25000000     0.45628222     0.42564718
     0.25000000     0.50390126     0.42564718
     0.25000000     0.55152031     0.42564718
     0.25000000     0.59913936     0.42564718
     0.25000000     0.64675841     0.42564718
     0.25000000     0.69437745     0.42564718
     0.25000000     0.74199650     0.42564718
     0.25000000     0.78961555     0.42564718
     0.25000000     0.83723460     0.42564718
     0.25000000     0.88485364     0.42564718
     0.25000000     0.93247269     0.42564718
     0.25000000     0.98009174     0.42564718
     0.27631579     0.02771079     0.42564718
     0.27631579     0.07532983     0.42564718
     0.27631579     0.12294888     0.42564718
     0.27631579     0.17056793     0.42564718
     0.27631579     0.21818698     0.42564718
     0.27631579     0.26580602     0.42564718
     0.27631579     0.31342507     0.42564718
     0.27631579     0.36104412     0.42564718
     0.27631579     0.40866317     0.42564718
     0.27631579     0.45628222     0.42564718
     0.27631579     0.50390126     0.42564718
     0.27631579     0.55152031     0.42564718
     0.27631579     0.59913936     0.42564718
     0.27631579     0.64675841     0.42564718
     0.27631579     0.69437745     0.42564718
     0.27631579     0.74199650     0.42564718
     0.27631579     0.78961555     0.42564718
     0.27631579     0.83723460     0.42564718
     0.27631579     0.88485364     0.42564718
     0.27631579     0.93247269     0.42564718
     0.27631579     0.98009174     0.42564718
     0.30263158     0.02771079     0.42564718
     0.30263158     0.07532983     0.42564718
     0.30263158     0.12294888     0.42564718
     0.30263158     0.17056793     0.42564718
     0.30263158     0.21818698     0.42564718
     0.30263158     0.26580602     0.42564718
     0.30263158     0.31342507     0.42564718
     0.30263158     0.36104412     0.42564718
     0.30263158     0.40866317     0.42564718
     0.30263158     0.45628222     0.42564718
     0.30263158     0.50390126     0.42564718
     0.30263158     0.55152031     0.42564718
     0.30263158     0.59913936     0.42564718
     0.30263158     0.64675841     0.42564718
     0.30263158     0.69437745     0.42564718
     0.30263158     0.74199650     0.42564718
     0.30263158     0.78961555     0.42564718
     0.30263158     0.83723460     0.42564718
     0.30263158     0.88485364     0.42564718
     0.30263158     0.93247269     0.42564718
     0.30263158     0.98009174     0.42564718
     0.32894737     0.02771079     0.42564718
     0.32894737     0.07532983     0.42564718
     0.32894737     0.12294888     0.42564718
     0.32894737     0.17056793     0.42564718
     0.32894737     0.21818698     0.42564718
     0.32894737     0.26580602     0.42564718
     0.32894737     0.31342507     0.42564718
     0.32894737     0.36104412     0.42564718
     0.32894737     0.40866317     0.42564718
     0.32894737     0.45628222     0.42564718
     0.32894737     0.50390126     0.42564718
     0.32894737     0.55152031     0.42564718
     0.32894737     0.59913936     0.42564718
     0.32894737     0.64675841     0.42564718
     0.32894737     0.69437745     0.42564718
     0.32894737     0.74199650     0.42564718
     0.32894737     0.78961555     0.42564718
     0.32894737     0.83723460     0.42564718
     0.32894737     0.88485364     0.42564718
     0.32894737     0.93247269     0.42564718
     0.32894737     0.98009174     0.42564718
     0.35526316     0.02771079     0.42564718
     0.35526316     0.07532983     0.42564718
     0.35526316     0.12294888     0.42564718
     0.35526316     0.17056793     0.42564718
     0.35526316     0.21818698     0.42564718
     0.35526316     0.26580602     0.42564718
     0.35526316     0.31342507     0.42564718
     0.35526316     0.36104412     0.42564718
     0.35526316     0.40866317     0.42564718
     0.35526316     0.45628222     0.42564718
     0.35526316     0.50390126     0.42564718
     0.35526316     0.55152031     0.42564718
     0.35526316     0.59913936     0.42564718
     0.35526316     0.64675841     0.42564718
     0.35526316     0.69437745     0.42564718
     0.35526316     0.74199650     0.42564718
     0.35526316     0.78961555     0.42564718
     0.35526316     0.83723460     0.42564718
     0.35526316     0.88485364     0.42564718
     0.35526316     0.93247269     0.42564718
     0.35526316     0.98009174     0.42564718
     0.38157895     0.02771079     0.42564718
     0.38157895     0.07532983     0.42564718
     0.38157895     0.12294888     0.42564718
     0.38157895     0.17056793     0.42564718
     0.38157895     0.21818698     0.42564718
     0.38157895     0.26580602     0.42564718
     0.38157895     0.31342507     0.42564718
     0.38157895     0.36104412     0.42564718
     0.38157895     0.40866317     0.42564718
     0.38157895     0.45628222     0.42564718
     0.38157895     0.50390126     0.42564718
     0.38157895     0.55152031     0.42564718
     0.38157895     0.59913936     0.42564718
     0.38157895     0.64675841     0.42564718
     0.38157895     0.69437745     0.42564718
     0.38157895     0.74199650     0.42564718
     0.38157895     0.78961555     0.42564718
     0.38157895     0.83723460     0.42564718
     0.38157895     0.88485364     0.42564718
     0.38157895     0.93247269     0.42564718
     0.38157895     0.98009174     0.42564718
     0.40789474     0.02771079     0.42564718
     0.40789474     0.07532983     0.42564718
     0.40789474     0.12294888     0.42564718
     0.40789474     0.17056793     0.42564718
     0.40789474     0.21818698     0.42564718
     0.40789474     0.26580602     0.42564718
     0.40789474     0.31342507     0.42564718
     0.40789474     0.36104412     0.42564718
     0.40789474     0.40866317     0.42564718
     0.40789474     0.45628222     0.42564718
     0.40789474     0.50390126     0.42564718
     0.40789474     0.55152031     0.42564718
     0.40789474     0.59913936     0.42564718
     0.40789474     0.64675841     0.42564718
     0.40789474     0.69437745     0.42564718
     0.40789474     0.74199650     0.42564718
     0.40789474     0.78961555     0.42564718
     0.40789474     0.83723460     0.42564718
     0.40789474     0.88485364     0.42564718
     0.40789474     0.93247269     0.42564718
     0.40789474     0.98009174     0.42564718
     0.43421053     0.02771079     0.42564718
     0.43421053     0.07532983     0.42564718
     0.43421053     0.12294888     0.42564718
     0.43421053     0.17056793     0.42564718
     0.43421053     0.21818698     0.42564718
     0.43421053     0.26580602     0.42564718
     0.43421053     0.31342507     0.42564718
     0.43421053     0.36104412     0.42564718
     0.43421053     0.40866317     0.42564718
     0.43421053     0.45628222     0.42564718
     0.43421053     0.50390126     0.42564718
     0.43421053     0.55152031     0.42564718
     0.43421053     0.59913936     0.42564718
     0.43421053     0.64675841     0.42564718
     0.43421053     0.69437745     0.42564718
     0.43421053     0.74199650     0.42564718
     0.43421053     0.78961555     0.42564718
     0.43421053     0.83723460     0.42564718
     0.43421053     0.88485364     0.42564718
     0.43421053     0.93247269     0.42564718
     0.43421053     0.98009174     0.42564718
     0.46052632     0.02771079     0.42564718
     0.46052632     0.07532983     0.42564718
     0.46052632     0.12294888     0.42564718
     0.46052632     0.17056793     0.42564718
     0.46052632     0.21818698     0.42564718
     0.46052632     0.26580602     0.42564718
     0.46052632     0.31342507     0.42564718
     0.46052632     0.36104412     0.42564718
     0.46052632     0.40866317     0.42564718
     0.46052632     0.45628222     0.42564718
     0.46052632     0.50390126     0.42564718
     0.46052632     0.55152031     0.42564718
     0.46052632     0.59913936     0.42564718
     0.46052632     0.64675841     0.42564718
     0.46052632     0.69437745     0.42564718
     0.46052632     0.74199650     0.42564718
     0.46052632     0.78961555     0.42564718
     0.46052632     0.83723460     0.42564718
     0.46052632     0.88485364     0.42564718
     0.46052632     0.93247269     0.42564718
     0.46052632     0.98009174     0.42564718
     0.48684211     0.02771079     0.42564718
     0.48684211     0.07532983     0.42564718
     0.48684211     0.12294888     0.42564718
     0.48684211     0.17056793     0.42564718
     0.48684211     0.21818698     0.42564718
     0.48684211     0.26580602     0.42564718
     0.48684211     0.31342507     0.42564718
     0.48684211     0.36104412     0.42564718
     0.48684211     0.40866317     0.42564718
     0.48684211     0.45628222     0.42564718
     0.48684211     0.50390126     0.42564718
     0.48684211     0.55152031     0.42564718
     0.48684211     0.59913936     0.42564718
     0.48684211     0.64675841     0.42564718
     0.48684211     0.69437745     0.42564718
     0.48684211     0.74199650     0.42564718
     0.48684211     0.78961555     0.42564718
     0.48684211     0.83723460     0.42564718
     0.48684211     0.88485364     0.42564718
     0.48684211     0.93247269     0.42564718
     0.48684211     0.98009174     0.42564718
     0.51315789     0.02771079     0.42564718
     0.51315789     0.07532983     0.42564718
     0.51315789     0.12294888     0.42564718
     0.51315789     0.17056793     0.42564718
     0.51315789     0.21818698     0.42564718
     0.51315789     0.26580602     0.42564718
     0.51315789     0.31342507     0.42564718
     0.51315789     0.36104412     0.42564718
     0.51315789     0.40866317     0.42564718
     0.51315789     0.45628222     0.42564718
     0.51315789     0.50390126     0.42564718
     0.51315789     0.55152031     0.42564718
     0.51315789     0.59913936     0.42564718
     0.51315789     0.64675841     0.42564718
     0.51315789     0.69437745     0.42564718
     0.51315789     0.74199650     0.42564718
     0.51315789     0.78961555     0.42564718
     0.51315789     0.83723460     0.42564718
     0.51315789     0.88485364     0.42564718
     0.51315789     0.93247269     0.42564718
     0.51315789     0.98009174     0.42564718
     0.53947368     0.02771079     0.42564718
     0.53947368     0.07532983     0.42564718
     0.53947368     0.12294888     0.42564718
     0.53947368     0.17056793     0.42564718
     0.53947368     0.21818698     0.42564718
     0.53947368     0.26580602     0.42564718
     0.53947368     0.31342507     0.42564718
     0.53947368     0.36104412     0.42564718
     0.53947368     0.40866317     0.42564718
     0.53947368     0.45628222     0.42564718
     0.53947368     0.50390126     0.42564718
     0.53947368     0.55152031     0.42564718
     0.53947368     0.59913936     0.42564718
     0.53947368     0.64675841     0.42564718
     0.53947368     0.69437745     0.42564718
     0.53947368     0.74199650     0.42564718
     0.53947368     0.78961555     0.42564718
     0.53947368     0.83723460     0.42564718
     0.53947368     0.88485364     0.42564718
     0.53947368     0.93247269     0.42564718
     0.53947368     0.98009174     0.42564718
     0.56578947     0.02771079     0.42564718
     0.56578947     0.07532983     0.42564718
     0.56578947     0.12294888     0.42564718
     0.56578947     0.17056793     0.42564718
     0.56578947     0.21818698     0.42564718
     0.56578947     0.26580602     0.42564718
     0.56578947     0.31342507     0.42564718
     0.56578947     0.36104412     0.42564718
     0.56578947     0.40866317     0.42564718
     0.56578947     0.45628222     0.42564718
     0.56578947     0.50390126     0.42564718
     0.56578947     0.55152031     0.42564718
     0.56578947     0.59913936     0.42564718
     0.56578947     0.64675841     0.42564718
     0.56578947     0.69437745     0.42564718
     0.56578947     0.74199650     0.42564718
     0.56578947     0.78961555     0.42564718
     0.56578947     0.83723460     0.42564718
     0.56578947     0.88485364     0.42564718
     0.56578947     0.93247269     0.42564718
     0.56578947     0.98009174     0.42564718
     0.59210526     0.02771079     0.42564718
     0.59210526     0.07532983     0.42564718
     0.59210526     0.12294888     0.42564718
     0.59210526     0.17056793     0.42564718
     0.59210526     0.21818698     0.42564718
     0.59210526     0.26580602     0.42564718
     0.59210526     0.31342507     0.42564718
     0.59210526     0.36104412     0.42564718
     0.59210526     0.40866317     0.42564718
     0.59210526     0.45628222     0.42564718
     0.59210526     0.50390126     0.42564718
     0.59210526     0.55152031     0.42564718
     0.59210526     0.59913936     0.42564718
     0.59210526     0.64675841     0.42564718
     0.59210526     0.69437745     0.42564718
     0.59210526     0.74199650     0.42564718
     0.59210526     0.78961555     0.42564718
     0.59210526     0.83723460     0.42564718
     0.59210526     0.88485364     0.42564718
     0.59210526     0.93247269     0.42564718
     0.59210526     0.98009174     0.42564718
     0.61842105     0.02771079     0.42564718
     0.61842105     0.07532983     0.42564718
     0.61842105     0.12294888     0.42564718
     0.61842105     0.17056793     0.42564718
     0.61842105     0.21818698     0.42564718
     0.61842105     0.26580602     0.42564718
     0.61842105     0.31342507     0.42564718
     0.61842105     0.36104412     0.42564718
     0.61842105     0.40866317     0.42564718
     0.61842105     0.45628222     0.42564718
     0.61842105     0.50390126     0.42564718
     0.61842105     0.55152031     0.42564718
     0.61842105     0.59913936     0.42564718
     0.61842105     0.64675841     0.42564718
     0.61842105     0.69437745     0.42564718
     0.61842105     0.74199650     0.42564718
     0.61842105     0.78961555     0.42564718
     0.61842105     0.83723460     0.42564718
     0.61842105     0.88485364     0.42564718
     0.61842105     0.93247269     0.42564718
     0.61842105     0.98009174     0.42564718
     0.64473684     0.02771079     0.42564718
     0.64473684     0.07532983     0.42564718
     0.64473684     0.12294888     0.42564718
     0.64473684     0.17056793     0.42564718
     0.64473684     0.21818698     0.42564718
     0.64473684     0.26580602     0.42564718
     0.64473684     0.31342507     0.42564718
     0.64473684     0.36104412     0.42564718
     0.64473684     0.40866317     0.42564718
     0.64473684     0.45628222     0.42564718
     0.64473684     0.50390126     0.42564718
     0.64473684     0.55152031     0.42564718
     0.64473684     0.59913936     0.42564718
     0.64473684     0.64675841     0.42564718
     0.64473684     0.69437745     0.42564718
     0.64473684     0.74199650     0.42564718
     0.64473684     0.78961555     0.42564718
     0.64473684     0.83723460     0.42564718
     0.64473684     0.88485364     0.42564718
     0.64473684     0.93247269     0.42564718
     0.64473684     0.98009174     0.42564718
     0.67105263     0.02771079     0.42564718
     0.67105263     0.07532983     0.42564718
     0.67105263     0.12294888     0.42564718
     0.67105263     0.17056793     0.42564718
     0.67105263     0.21818698     0.42564718
     0.67105263     0.26580602     0.42564718
     0.67105263     0.31342507     0.42564718
     0.67105263     0.36104412     0.42564718
     0.67105263     0.40866317     0.42564718
     0.67105263     0.45628222     0.42564718
     0.67105263     0.50390126     0.42564718
     0.67105263     0.55152031     0.42564718
     0.67105263     0.59913936     0.42564718
     0.67105263     0.64675841     0.42564718
     0.67105263     0.69437745     0.42564718
     0.67105263     0.74199650     0.42564718
     0.67105263     0.78961555     0.42564718
     0.67105263     0.83723460     0.42564718
     0.67105263     0.88485364     0.42564718
     0.67105263     0.93247269     0.42564718
     0.67105263     0.98009174     0.42564718
     0.69736842     0.02771079     0.42564718
     0.69736842     0.07532983     0.42564718
     0.69736842     0.12294888     0.42564718
     0.69736842     0.17056793     0.42564718
     0.69736842     0.21818698     0.42564718
     0.69736842     0.26580602     0.42564718
     0.69736842     0.31342507     0.42564718
     0.69736842     0.36104412     0.42564718
     0.69736842     0.40866317     0.42564718
     0.69736842     0.45628222     0.42564718
     0.69736842     0.50390126     0.42564718
     0.69736842     0.55152031     0.42564718
     0.69736842     0.59913936     0.42564718
     0.69736842     0.64675841     0.42564718
     0.69736842     0.69437745     0.42564718
     0.69736842     0.74199650     0.42564718
     0.69736842     0.78961555     0.42564718
     0.69736842     0.83723460     0.42564718
     0.69736842     0.88485364     0.42564718
     0.69736842     0.93247269     0.42564718
     0.69736842     0.98009174     0.42564718
     0.72368421     0.02771079     0.42564718
     0.72368421     0.07532983     0.42564718
     0.72368421     0.12294888     0.42564718
     0.72368421     0.17056793     0.42564718
     0.72368421     0.21818698     0.42564718
     0.72368421     0.26580602     0.42564718
     0.72368421     0.31342507     0.42564718
     0.72368421     0.36104412     0.42564718
     0.72368421     0.40866317     0.42564718
     0.72368421     0.45628222     0.42564718
     0.72368421     0.50390126     0.42564718
     0.72368421     0.55152031     0.42564718
     0.72368421     0.59913936     0.42564718
     0.72368421     0.64675841     0.42564718
     0.72368421     0.69437745     0.42564718
     0.72368421     0.74199650     0.42564718
     0.72368421     0.78961555     0.42564718
     0.72368421     0.83723460     0.42564718
     0.72368421     0.88485364     0.42564718
     0.72368421     0.93247269     0.42564718
     0.72368421     0.98009174     0.42564718
     0.75000000     0.02771079     0.42564718
     0.75000000     0.07532983     0.42564718
     0.75000000     0.12294888     0.42564718
     0.75000000     0.17056793     0.42564718
     0.75000000     0.21818698     0.42564718
     0.75000000     0.26580602     0.42564718
     0.75000000     0.31342507     0.42564718
     0.75000000     0.36104412     0.42564718
     0.75000000     0.40866317     0.42564718
     0.75000000     0.45628222     0.42564718
     0.75000000     0.50390126     0.42564718
     0.75000000     0.55152031     0.42564718
     0.75000000     0.59913936     0.42564718
     0.75000000     0.64675841     0.42564718
     0.75000000     0.69437745     0.42564718
     0.75000000     0.74199650     0.42564718
     0.75000000     0.78961555     0.42564718
     0.75000000     0.83723460     0.42564718
     0.75000000     0.88485364     0.42564718
     0.75000000     0.93247269     0.42564718
     0.75000000     0.98009174     0.42564718
     0.77631579     0.02771079     0.42564718
     0.77631579     0.07532983     0.42564718
     0.77631579     0.12294888     0.42564718
     0.77631579     0.17056793     0.42564718
     0.77631579     0.21818698     0.42564718
     0.77631579     0.26580602     0.42564718
     0.77631579     0.31342507     0.42564718
     0.77631579     0.36104412     0.42564718
     0.77631579     0.40866317     0.42564718
     0.77631579     0.45628222     0.42564718
     0.77631579     0.50390126     0.42564718
     0.77631579     0.55152031     0.42564718
     0.77631579     0.59913936     0.42564718
     0.77631579     0.64675841     0.42564718
     0.77631579     0.69437745     0.42564718
     0.77631579     0.74199650     0.42564718
     0.77631579     0.78961555     0.42564718
     0.77631579     0.83723460     0.42564718
     0.77631579     0.88485364     0.42564718
     0.77631579     0.93247269     0.42564718
     0.77631579     0.98009174     0.42564718
     0.80263158     0.02771079     0.42564718
     0.80263158     0.07532983     0.42564718
     0.80263158     0.12294888     0.42564718
     0.80263158     0.17056793     0.42564718
     0.80263158     0.21818698     0.42564718
     0.80263158     0.26580602     0.42564718
     0.80263158     0.31342507     0.42564718
     0.80263158     0.36104412     0.42564718
     0.80263158     0.40866317     0.42564718
     0.80263158     0.45628222     0.42564718
     0.80263158     0.50390126     0.42564718
     0.80263158     0.55152031     0.42564718
     0.80263158     0.59913936     0.42564718
     0.80263158     0.64675841     0.42564718
     0.80263158     0.69437745     0.42564718
     0.80263158     0.74199650     0.42564718
     0.80263158     0.78961555     0.42564718