Generated by Twist2D
    1.0
     164.84998175       0.00000000       0.00000000
       0.00000000     124.05361721       0.00000000
       0.00000000       0.00000000      20.00000000
    P
    11204
Direct
     0.01000000     0.02078309     0.42564718
     0.01000000     0.05649738     0.42564718
     0.01000000     0.09221166     0.42564718
     0.01000000     0.12792595     0.42564718
     0.01000000     0.16364023     0.42564718
     0.01000000     0.19935452     0.42564718
     0.01000000     0.23506880     0.42564718
     0.01000000     0.27078309     0.42564718
     0.01000000     0.30649738     0.42564718
     0.01000000     0.34221166     0.42564718
     0.01000000     0.37792595     0.42564718
     0.01000000     0.41364023     0.42564718
     0.01000000     0.44935452     0.42564718
     0.01000000     0.48506880     0.42564718
     0.01000000     0.52078309     0.42564718
     0.01000000     0.55649738     0.42564718
     0.01000000     0.59221166     0.42564718
     0.01000000     0.62792595     0.42564718
     0.01000000     0.66364023     0.42564718
     0.01000000     0.69935452     0.42564718
     0.01000000     0.73506880     0.42564718
     0.01000000     0.77078309     0.42564718
     0.01000000     0.80649738     0.42564718
     0.01000000     0.84221166     0.42564718
     0.01000000     0.87792595     0.42564718
     0.01000000     0.91364023     0.42564718
     0.01000000     0.94935452     0.42564718
     0.01000000     0.98506880     0.42564718
     0.03000000     0.02078309     0.42564718
     0.03000000     0.05649738     0.42564718
     0.03000000     0.09221166     0.42564718
     0.03000000     0.12792595     0.42564718
     0.03000000     0.16364023     0.42564718
     0.03000000     0.19935452     0.42564718
     0.03000000     0.23506880     0.42564718
     0.03000000     0.27078309     0.42564718
     0.03000000     0.30649738     0.42564718
     0.03000000     0.34221166     0.42564718
     0.03000000     0.37792595     0.42564718
     0.03000000     0.41364023     0.42564718
     0.03000000     0.44935452     0.42564718
     0.03000000     0.48506880     0.42564718
     0.03000000     0.52078309     0.42564718
     0.03000000     0.55649738     0.42564718
     0.03000000     0.59221166     0.42564718
     0.03000000     0.62792595     0.42564718
     0.03000000     0.66364023     0.42564718
     0.03000000     0.69935452     0.42564718
     0.03000000     0.73506880     0.42564718
     0.03000000     0.77078309     0.42564718
     0.03000000     0.80649738     0.42564718
     0.03000000     0.84221166     0.42564718
     0.03000000     0.87792595     0.42564718
     0.03000000     0.91364023     0.42564718
     0.03000000     0.94935452     0.42564718
     0.03000000     0.98506880     0.42564718
     0.05000000     0.02078309     0.42564718
     0.05000000     0.05649738     0.42564718
     0.05000000     0.09221166     0.42564718
     0.05000000     0.12792595     0.42564718
     0.05000000     0.16364023     0.42564718
     0.05000000     0.19935452     0.42564718
     0.05000000     0.23506880     0.42564718
     0.05000000     0.27078309     0.42564718
     0.05000000     0.30649738     0.42564718
     0.05000000     0.34221166     0.42564718
     0.05000000     0.37792595     0.42564718
     0.05000000     0.41364023     0.42564718
     0.05000000     0.44935452     0.42564718
     0.05000000     0.48506880     0.42564718
     0.05000000     0.52078309     0.42564718
     0.05000000     0.55649738     0.42564718
     0.05000000     0.59221166     0.42564718
     0.05000000     0.62792595     0.42564718
     0.05000000     0.66364023     0.42564718
     0.05000000     0.69935452     0.42564718
     0.05000000     0.73506880     0.42564718
     0.05000000     0.77078309     0.42564718
     0.05000000     0.80649738     0.42564718
     0.05000000     0.84221166     0.42564718
     0.05000000     0.87792595     0.42564718
     0.05000000     0.91364023     0.42564718
     0.05000000     0.94935452     0.42564718
     0.05000000     0.98506880     0.42564718
     0.07000000     0.02078309     0.42564718
     0.07000000     0.05649738     0.42564718
     0.07000000     0.09221166     0.42564718
     0.07000000     0.12792595     0.42564718
     0.07000000     0.16364023     0.42564718
     0.07000000     0.19935452     0.42564718
     0.07000000     0.23506880     0.42564718
     0.07000000     0.27078309     0.42564718
     0.07000000     0.30649738     0.42564718
     0.07000000     0.34221166     0.42564718
     0.07000000     0.37792595     0.42564718
     0.07000000     0.41364023     0.42564718
     0.07000000     0.44935452     0.42564718
     0.07000000     0.48506880     0.42564718
     0.07000000     0.52078309     0.42564718
     0.07000000     0.55649738     0.42564718
     0.07000000     0.59221166     0.42564718
     0.07000000     0.62792595     0.42564718
     0.07000000     0.66364023     0.42564718
     0.07000000     0.69935452     0.42564718
     0.07000000     0.73506880     0.42564718
     0.07000000     0.77078309     0.42564718
     0.07000000     0.80649738     0.42564718
     0.07000000     0.84221166     0.42564718
     0.07000000     0.87792595     0.42564718
     0.07000000     0.91364023     0.42564718
     0.07000000     0.94935452     0.42564718
     0.07000000     0.98506880     0.42564718
     0.09000000     0.02078309     0.42564718
     0.09000000     0.05649738     0.42564718
     0.09000000     0.09221166     0.42564718
     0.09000000     0.12792595     0.42564718
     0.09000000     0.16364023     0.42564718
     0.09000000     0.19935452     0.42564718
     0.09000000     0.23506880     0.42564718
     0.09000000     0.27078309     0.42564718
     0.09000000     0.30649738     0.42564718
     0.09000000     0.34221166     0.42564718
     0.09000000     0.37792595     0.42564718
     0.09000000     0.41364023     0.42564718
     0.09000000     0.44935452     0.42564718
     0.09000000     0.48506880     0.42564718
     0.09000000     0.52078309     0.42564718
     0.09000000     0.55649738     0.42564718
     0.09000000     0.59221166     0.42564718
     0.09000000     0.62792595     0.42564718
     0.09000000     0.66364023     0.42564718
     0.09000000     0.69935452     0.42564718
     0.09000000     0.73506880     0.42564718
     0.09000000     0.77078309     0.42564718
     0.09000000     0.80649738     0.42564718
     0.09000000     0.84221166     0.42564718
     0.09000000     0.87792595     0.42564718
     0.09000000     0.91364023     0.42564718
     0.09000000     0.94935452     0.42564718
     0.09000000     0.98506880     0.42564718
     0.11000000     0.02078309     0.42564718
     0.11000000     0.05649738     0.42564718
     0.11000000     0.09221166     0.42564718
     0.11000000     0.12792595     0.42564718
     0.11000000     0.16364023     0.42564718
     0.11000000     0.19935452     0.42564718
     0.11000000     0.23506880     0.42564718
     0.11000000     0.27078309     0.42564718
     0.11000000     0.30649738     0.42564718
     0.11000000     0.34221166     0.42564718
     0.11000000     0.37792595     0.42564718
     0.11000000     0.41364023     0.42564718
     0.11000000     0.44935452     0.42564718
     0.11000000     0.48506880     0.42564718
     0.11000000     0.52078309     0.42564718
     0.11000000     0.55649738     0.42564718
     0.11000000     0.59221166     0.42564718
     0.11000000     0.62792595     0.42564718
     0.11000000     0.66364023     0.42564718
     0.11000000     0.69935452     0.42564718
     0.11000000     0.73506880     0.42564718
     0.11000000     0.77078309     0.42564718
     0.11000000     0.80649738     0.42564718
     0.11000000     0.84221166     0.42564718
     0.11000000     0.87792595     0.42564718
     0.11000000     0.91364023     0.42564718
     0.11000000     0.94935452     0.42564718
     0.11000000     0.98506880     0.42564718
     0.13000000     0.02078309     0.42564718
     0.13000000     0.05649738     0.42564718
     0.13000000     0.09221166     0.42564718
     0.13000000     0.12792595     0.42564718
     0.13000000     0.16364023     0.42564718
     0.13000000     0.19935452     0.42564718
     0.13000000     0.23506880     0.42564718
     0.13000000     0.27078309     0.42564718
     0.13000000     0.30649738     0.42564718
     0.13000000     0.34221166     0.42564718
     0.13000000     0.37792595     0.42564718
     0.13000000     0.41364023     0.42564718
     0.13000000     0.44935452     0.42564718
     0.13000000     0.48506880     0.42564718
     0.13000000     0.52078309     0.42564718
     0.13000000     0.55649738     0.42564718
     0.13000000     0.59221166     0.42564718
     0.13000000     0.62792595     0.42564718
     0.13000000     0.66364023     0.42564718
     0.13000000     0.69935452     0.42564718
     0.13000000     0.73506880     0.42564718
     0.13000000     0.77078309     0.42564718
     0.13000000     0.80649738     0.42564718
     0.13000000     0.84221166     0.42564718
     0.13000000     0.87792595     0.42564718
     0.13000000     0.91364023     0.42564718
     0.13000000     0.94935452     0.42564718
     0.13000000     0.98506880     0.42564718
     0.15000000     0.02078309     0.42564718
     0.15000000     0.05649738     0.42564718
     0.15000000     0.09221166     0.42564718
     0.15000000     0.12792595     0.42564718
     0.15000000     0.16364023     0.42564718
     0.15000000     0.19935452     0.42564718
     0.15000000     0.23506880     0.42564718
     0.15000000     0.27078309     0.42564718
     0.15000000     0.30649738     0.42564718
     0.15000000     0.34221166     0.42564718
     0.15000000     0.37792595     0.42564718
     0.15000000     0.41364023     0.42564718
     0.15000000     0.44935452     0.42564718
     0.15000000     0.48506880     0.42564718
     0.15000000     0.52078309     0.42564718
     0.15000000     0.55649738     0.42564718
     0.15000000     0.59221166     0.42564718
     0.15000000     0.62792595     0.42564718
     0.15000000     0.66364023     0.42564718
     0.15000000     0.69935452     0.42564718
     0.15000000     0.73506880     0.42564718
     0.15000000     0.77078309     0.42564718
     0.15000000     0.80649738     0.42564718
     0.15000000     0.84221166     0.42564718
     0.15000000     0.87792595     0.42564718
     0.15000000     0.91364023     0.42564718
     0.15000000     0.94935452     0.42564718
     0.15000000     0.98506880     0.42564718
     0.17000000     0.02078309     0.42564718
     0.17000000     0.05649738     0.42564718
     0.17000000     0.09221166     0.42564718
     0.17000000     0.12792595     0.42564718
     0.17000000     0.16364023     0.42564718
     0.17000000     0.19935452     0.42564718
     0.17000000     0.23506880     0.42564718
     0.17000000     0.27078309     0.42564718
     0.17000000     0.30649738     0.42564718
     0.17000000     0.34221166     0.42564718
     0.17000000     0.37792595     0.42564718
     0.17000000     0.41364023     0.42564718
     0.17000000     0.44935452     0.42564718
     0.17000000     0.48506880     0.42564718
     0.17000000     0.52078309     0.42564718
     0.17000000     0.55649738     0.42564718
     0.17000000     0.59221166     0.42564718
     0.17000000     0.62792595     0.42564718
     0.17000000     0.66364023     0.42564718
     0.17000000     0.69935452     0.42564718
     0.17000000     0.73506880     0.42564718
     0.17000000     0.77078309     0.42564718
     0.17000000     0.80649738     0.42564718
     0.17000000     0.84221166     0.42564718
     0.17000000     0.87792595     0.42564718
     0.17000000     0.91364023     0.42564718
     0.17000000     0.94935452     0.42564718
     0.17000000     0.98506880     0.42564718
     0.19000000     0.02078309     0.42564718
     0.19000000     0.05649738     0.42564718
     0.19000000     0.09221166     0.42564718
     0.19000000     0.12792595     0.42564718
     0.19000000     0.16364023     0.42564718
     0.19000000     0.19935452     0.42564718
     0.19000000     0.23506880     0.42564718
     0.19000000     0.27078309     0.42564718
     0.19000000     0.30649738     0.42564718
     0.19000000     0.34221166     0.42564718
     0.19000000     0.37792595     0.42564718
     0.19000000     0.41364023     0.42564718
     0.19000000     0.44935452     0.42564718
     0.19000000     0.48506880     0.42564718
     0.19000000     0.52078309     0.42564718
     0.19000000     0.55649738     0.42564718
     0.19000000     0.59221166     0.42564718
     0.19000000     0.62792595     0.42564718
     0.19000000     0.66364023     0.42564718
     0.19000000     0.69935452     0.42564718
     0.19000000     0.73506880     0.42564718
     0.19000000     0.77078309     0.42564718
     0.19000000     0.80649738     0.42564718
     0.19000000     0.84221166     0.42564718
     0.19000000     0.87792595     0.42564718
     0.19000000     0.91364023     0.42564718
     0.19000000     0.94935452     0.42564718
     0.19000000     0.98506880     0.42564718
     0.21000000     0.02078309     0.42564718
     0.21000000     0.05649738     0.42564718
     0.21000000     0.09221166     0.42564718
     0.21000000     0.12792595     0.42564718
     0.21000000     0.16364023     0.42564718
     0.21000000     0.19935452     0.42564718
     0.21000000     0.23506880     0.42564718
     0.21000000     0.27078309     0.42564718
     0.21000000     0.30649738     0.42564718
     0.21000000     0.34221166     0.42564718
     0.21000000     0.37792595     0.42564718
     0.21000000     0.41364023     0.42564718
     0.21000000     0.44935452     0.42564718
     0.21000000     0.48506880     0.42564718
     0.21000000     0.52078309     0.42564718
     0.21000000     0.55649738     0.42564718
     0.21000000     0.59221166     0.42564718
     0.21000000     0.62792595     0.42564718
     0.21000000     0.66364023     0.42564718
     0.21000000     0.69935452     0.42564718
     0.21000000     0.73506880     0.42564718
     0.21000000     0.77078309     0.42564718
     0.21000000     0.80649738     0.42564718
     0.21000000     0.84221166     0.42564718
     0.21000000     0.87792595     0.42564718
     0.21000000     0.91364023     0.42564718
     0.21000000     0.94935452     0.42564718
     0.21000000     0.98506880     0.42564718
     0.23000000     0.02078309     0.42564718
     0.23000000     0.05649738     0.42564718
     0.23000000     0.09221166     0.42564718
     0.23000000     0.12792595     0.42564718
     0.23000000     0.16364023     0.42564718
     0.23000000     0.19935452     0.42564718
     0.23000000     0.23506880     0.42564718
     0.23000000     0.27078309     0.42564718
     0.23000000     0.30649738     0.42564718
     0.23000000     0.34221166     0.42564718
     0.23000000     0.37792595     0.42564718
     0.23000000     0.41364023     0.42564718
     0.23000000     0.44935452     0.42564718
     0.23000000     0.48506880     0.42564718
     0.23000000     0.52078309     0.42564718
     0.23000000     0.55649738     0.42564718
     0.23000000     0.59221166     0.42564718
     0.23000000     0.62792595     0.42564718
     0.23000000     0.66364023     0.42564718
     0.23000000     0.69935452     0.42564718
     0.23000000     0.73506880     0.42564718
     0.23000000     0.77078309     0.42564718
     0.23000000     0.80649738     0.42564718
     0.23000000     0.84221166     0.42564718
     0.23000000     0.87792595     0.42564718
     0.23000000     0.91364023     0.42564718
     0.23000000     0.94935452     0.42564718
     0.23000000     0.98506880     0.42564718
     0.25000000     0.02078309     0.42564718
     0.25000000     0.05649738     0.42564718
     0.25000000     0.09221166     0.42564718
     0.25000000     0.12792595     0.42564718
     0.25000000     0.16364023     0.42564718
     0.25000000     0.19935452     0.42564718
     0.25000000     0.23506880     0.42564718
     0.25000000     0.27078309     0.42564718
     0.25000000     0.30649738     0.42564718
     0.25000000     0.34221166     0.42564718
     0.25000000     0.37792595     0.42564718
     0.25000000     0.41364023     0.42564718
     0.25000000     0.44935452     0.42564718
     0.25000000     0.48506880     0.42564718
     0.25000000     0.52078309     0.42564718
     0.25000000     0.55649738     0.42564718
     0.25000000     0.59221166     0.42564718
     0.25000000     0.62792595     0.42564718
     0.25000000     0.66364023     0.42564718
     0.25000000     0.69935452     0.42564718
     0.25000000     0.73506880     0.42564718
     0.25000000     0.77078309     0.42564718
     0.25000000     0.80649738     0.42564718
     0.25000000     0.84221166     0.42564718
     0.25000000     0.87792595     0.42564718
     0.25000000     0.91364023     0.42564718
     0.25000000     0.94935452     0.42564718
     0.25000000     0.98506880     0.42564718
     0.27000000     0.02078309     0.42564718
     0.27000000     0.05649738     0.42564718
     0.27000000     0.09221166     0.42564718
     0.27000000     0.12792595     0.42564718
     0.27000000     0.16364023     0.42564718
     0.27000000     0.19935452     0.42564718
     0.27000000     0.23506880     0.42564718
     0.27000000     0.27078309     0.42564718
     0.27000000     0.30649738     0.42564718
     0.27000000     0.34221166     0.42564718
     0.27000000     0.37792595     0.42564718
     0.27000000     0.41364023     0.42564718
     0.27000000     0.44935452     0.42564718
     0.27000000     0.48506880     0.42564718
     0.27000000     0.52078309     0.42564718
     0.27000000     0.55649738     0.42564718
     0.27000000     0.59221166     0.42564718
     0.27000000     0.62792595     0.42564718
     0.27000000     0.66364023     0.42564718
     0.27000000     0.69935452     0.42564718
     0.27000000     0.73506880     0.42564718
     0.27000000     0.77078309     0.42564718
     0.27000000     0.80649738     0.42564718
     0.27000000     0.84221166     0.42564718
     0.27000000     0.87792595     0.42564718
     0.27000000     0.91364023     0.42564718
     0.27000000     0.94935452     0.42564718
     0.27000000     0.98506880     0.42564718
     0.29000000     0.02078309     0.42564718
     0.29000000     0.05649738     0.42564718
     0.29000000     0.09221166     0.42564718
     0.29000000     0.12792595     0.42564718
     0.29000000     0.16364023     0.42564718
     0.29000000     0.19935452     0.42564718
     0.29000000     0.23506880     0.42564718
     0.29000000     0.27078309     0.42564718
     0.29000000     0.30649738     0.42564718
     0.29000000     0.34221166     0.42564718
     0.29000000     0.37792595     0.42564718
     0.29000000     0.41364023     0.42564718
     0.29000000     0.44935452     0.42564718
     0.29000000     0.48506880     0.42564718
     0.29000000     0.52078309     0.42564718
     0.29000000     0.55649738     0.42564718
     0.29000000     0.59221166     0.42564718
     0.29000000     0.62792595     0.42564718
     0.29000000     0.66364023     0.42564718
     0.29000000     0.69935452     0.42564718
     0.29000000     0.73506880     0.42564718
     0.29000000     0.77078309     0.42564718
     0.29000000     0.80649738     0.42564718
     0.29000000     0.84221166     0.42564718
     0.29000000     0.87792595     0.42564718
     0.29000000     0.91364023     0.42564718
     0.29000000     0.94935452     0.42564718
     0.29000000     0.98506880     0.42564718
     0.31000000     0.02078309     0.42564718
     0.31000000     0.05649738     0.42564718
     0.31000000     0.09221166     0.42564718
     0.31000000     0.12792595     0.42564718
     0.31000000     0.16364023     0.42564718
     0.31000000     0.19935452     0.42564718
     0.31000000     0.23506880     0.42564718
     0.31000000     0.27078309     0.42564718
     0.31000000     0.30649738     0.42564718
     0.31000000     0.34221166     0.42564718
     0.31000000     0.37792595     0.42564718
     0.31000000     0.41364023     0.42564718
     0.31000000     0.44935452     0.42564718
     0.31000000     0.48506880     0.42564718
     0.31000000     0.52078309     0.42564718
     0.31000000     0.55649738     0.42564718
     0.31000000     0.59221166     0.42564718
     0.31000000     0.62792595     0.42564718
     0.31000000     0.66364023     0.42564718
     0.31000000     0.69935452     0.42564718
     0.31000000     0.73506880     0.42564718
     0.31000000     0.77078309     0.42564718
     0.31000000     0.80649738     0.42564718
     0.31000000     0.84221166     0.42564718
     0.31000000     0.87792595     0.42564718
     0.31000000     0.91364023     0.42564718
     0.31000000     0.94935452     0.42564718
     0.31000000     0.98506880     0.42564718
     0.33000000     0.02078309     0.42564718
     0.33000000     0.05649738     0.42564718
     0.33000000     0.09221166     0.42564718
     0.33000000     0.12792595     0.42564718
     0.33000000     0.16364023     0.42564718
     0.33000000     0.19935452     0.42564718
     0.33000000     0.23506880     0.42564718
     0.33000000     0.27078309     0.42564718
     0.33000000     0.30649738     0.42564718
     0.33000000     0.34221166     0.42564718
     0.33000000     0.37792595     0.42564718
     0.33000000     0.41364023     0.42564718
     0.33000000     0.44935452     0.42564718
     0.33000000     0.48506880     0.42564718
     0.33000000     0.52078309     0.42564718
     0.33000000     0.55649738     0.42564718
     0.33000000     0.59221166     0.42564718
     0.33000000     0.62792595     0.42564718
     0.33000000     0.66364023     0.42564718
     0.33000000     0.69935452     0.42564718
     0.33000000     0.73506880     0.42564718
     0.33000000     0.77078309     0.42564718
     0.33000000     0.80649738     0.42564718
     0.33000000     0.84221166     0.42564718
     0.33000000     0.87792595     0.42564718
     0.33000000     0.91364023     0.42564718
     0.33000000     0.94935452     0.42564718
     0.33000000     0.98506880     0.42564718
     0.35000000     0.02078309     0.42564718
     0.35000000     0.05649738     0.42564718
     0.35000000     0.09221166     0.42564718
     0.35000000     0.12792595     0.42564718
     0.35000000     0.16364023     0.42564718
     0.35000000     0.19935452     0.42564718
     0.35000000     0.23506880     0.42564718
     0.35000000     0.27078309     0.42564718
     0.35000000     0.30649738     0.42564718
     0.35000000     0.34221166     0.42564718
     0.35000000     0.37792595     0.42564718
     0.35000000     0.41364023     0.42564718
     0.35000000     0.44935452     0.42564718
     0.35000000     0.48506880     0.42564718
     0.35000000     0.52078309     0.42564718
     0.35000000     0.55649738     0.42564718
     0.35000000     0.59221166     0.42564718
     0.35000000     0.62792595     0.42564718
     0.35000000     0.66364023     0.42564718
     0.35000000     0.69935452     0.42564718
     0.35000000     0.73506880     0.42564718
     0.35000000     0.77078309     0.42564718
     0.35000000     0.80649738     0.42564718
     0.35000000     0.84221166     0.42564718
     0.35000000     0.87792595     0.42564718
     0.35000000     0.91364023     0.42564718
     0.35000000     0.94935452     0.42564718
     0.35000000     0.98506880     0.42564718
     0.37000000     0.02078309     0.42564718
     0.37000000     0.05649738     0.42564718
     0.37000000     0.09221166     0.42564718
     0.37000000     0.12792595     0.42564718
     0.37000000     0.16364023     0.42564718
     0.37000000     0.19935452     0.42564718
     0.37000000     0.23506880     0.42564718
     0.37000000     0.27078309     0.42564718
     0.37000000     0.30649738     0.42564718
     0.37000000     0.34221166     0.42564718
     0.37000000     0.37792595     0.42564718
     0.37000000     0.41364023     0.42564718
     0.37000000     0.44935452     0.42564718
     0.37000000     0.48506880     0.42564718
     0.37000000     0.52078309     0.42564718
     0.37000000     0.55649738     0.42564718
     0.37000000     0.59221166     0.42564718
     0.37000000     0.62792595     0.42564718
     0.37000000     0.66364023     0.42564718
     0.37000000     0.69935452     0.42564718
     0.37000000     0.73506880     0.42564718
     0.37000000     0.77078309     0.42564718
     0.37000000     0.80649738     0.42564718
     0.37000000     0.84221166     0.42564718
     0.37000000     0.87792595     0.42564718
     0.37000000     0.91364023     0.42564718
     0.37000000     0.94935452     0.42564718
     0.37000000     0.98506880     0.42564718
     0.39000000     0.02078309     0.42564718
     0.39000000     0.05649738     0.42564718
     0.39000000     0.09221166     0.42564718
     0.39000000     0.12792595     0.42564718
     0.39000000     0.16364023     0.42564718
     0.39000000     0.19935452     0.42564718
     0.39000000     0.23506880     0.42564718
     0.39000000     0.27078309     0.42564718
     0.39000000     0.30649738     0.42564718
     0.39000000     0.34221166     0.42564718
     0.39000000     0.37792595     0.42564718
     0.39000000     0.41364023     0.42564718
     0.39000000     0.44935452     0.42564718
     0.39000000     0.48506880     0.42564718
     0.39000000     0.52078309     0.42564718
     0.39000000     0.55649738     0.42564718
     0.39000000     0.59221166     0.42564718
     0.39000000     0.62792595     0.42564718
     0.39000000     0.66364023     0.42564718
     0.39000000     0.69935452     0.42564718
     0.39000000     0.73506880     0.42564718
     0.39000000     0.77078309     0.42564718
     0.39000000     0.80649738     0.42564718
     0.39000000     0.84221166     0.42564718
     0.39000000     0.87792595     0.42564718
     0.39000000     0.91364023     0.42564718
     0.39000000     0.94935452     0.42564718
     0.39000000     0.98506880     0.42564718
     0.41000000     0.02078309     0.42564718
     0.41000000     0.05649738     0.42564718
     0.41000000     0.09221166     0.42564718
     0.41000000     0.12792595     0.42564718
     0.41000000     0.16364023     0.42564718
     0.41000000     0.19935452     0.42564718
     0.41000000     0.23506880     0.42564718
     0.41000000     0.27078309     0.42564718
     0.41000000     0.30649738     0.42564718
     0.41000000     0.34221166     0.42564718
     0.41000000     0.37792595     0.42564718
     0.41000000     0.41364023     0.42564718
     0.41000000     0.44935452     0.42564718
     0.41000000     0.48506880     0.42564718
     0.41000000     0.52078309     0.42564718
     0.41000000     0.55649738     0.42564718
     0.41000000     0.59221166     0.42564718
     0.41000000     0.62792595     0.42564718
     0.41000000     0.66364023     0.42564718
     0.41000000     0.69935452     0.42564718
     0.41000000     0.73506880     0.42564718
     0.41000000     0.77078309     0.42564718
     0.41000000     0.80649738     0.42564718
     0.41000000     0.84221166     0.42564718
     0.41000000     0.87792595     0.42564718
     0.41000000     0.91364023     0.42564718
     0.41000000     0.94935452     0.42564718
     0.41000000     0.98506880     0.42564718
     0.43000000     0.02078309     0.42564718
     0.43000000     0.05649738     0.42564718
     0.43000000     0.09221166     0.42564718
     0.43000000     0.12792595     0.42564718
     0.43000000     0.16364023     0.42564718
     0.43000000     0.19935452     0.42564718
     0.43000000     0.23506880     0.42564718
     0.43000000     0.27078309     0.42564718
     0.43000000     0.30649738     0.42564718
     0.43000000     0.34221166     0.42564718
     0.43000000     0.37792595     0.42564718
     0.43000000     0.41364023     0.42564718
     0.43000000     0.44935452     0.42564718
     0.43000000     0.48506880     0.42564718
     0.43000000     0.52078309     0.42564718
     0.43000000     0.55649738     0.42564718
     0.43000000     0.59221166     0.42564718
     0.43000000     0.62792595     0.42564718
     0.43000000     0.66364023     0.42564718
     0.43000000     0.69935452     0.42564718
     0.43000000     0.73506880     0.42564718
     0.43000000     0.77078309     0.42564718
     0.43000000     0.80649738     0.42564718
     0.43000000     0.84221166     0.42564718
     0.43000000     0.87792595     0.42564718
     0.43000000     0.91364023     0.42564718
     0.43000000     0.94935452     0.42564718
     0.43000000     0.98506880     0.42564718
     0.45000000     0.02078309     0.42564718
     0.45000000     0.05649738     0.42564718
     0.45000000     0.09221166     0.42564718
     0.45000000     0.12792595     0.42564718
     0.45000000     0.16364023     0.42564718
     0.45000000     0.19935452     0.42564718
     0.45000000     0.23506880     0.42564718
     0.45000000     0.27078309     0.42564718
     0.45000000     0.30649738     0.42564718
     0.45000000     0.34221166     0.42564718
     0.45000000     0.37792595     0.42564718
     0.45000000     0.41364023     0.42564718
     0.45000000     0.44935452     0.42564718
     0.45000000     0.48506880     0.42564718
     0.45000000     0.52078309     0.42564718
     0.45000000     0.55649738     0.42564718
     0.45000000     0.59221166     0.42564718
     0.45000000     0.62792595     0.42564718
     0.45000000     0.66364023     0.42564718
     0.45000000     0.69935452     0.42564718
     0.45000000     0.73506880     0.42564718
     0.45000000     0.77078309     0.42564718
     0.45000000     0.80649738     0.42564718
     0.45000000     0.84221166     0.42564718
     0.45000000     0.87792595     0.42564718
     0.45000000     0.91364023     0.42564718
     0.45000000     0.94935452     0.42564718
     0.45000000     0.98506880     0.42564718
     0.47000000     0.02078309     0.42564718
     0.47000000     0.05649738     0.42564718
     0.47000000     0.09221166     0.42564718