Generated by Twist2D
    1.0
     154.95898284       0.00000000       0.00000000
       0.00000000     115.19264455       0.00000000
       0.00000000       0.00000000      20.00000000
    P
    9780
Direct
     0.01063830     0.02238179     0.42564718
     0.01063830     0.06084333     0.42564718
     0.01063830     0.09930487     0.42564718
     0.01063830     0.13776640     0.42564718
     0.01063830     0.17622794     0.42564718
     0.01063830     0.21468948     0.42564718
     0.01063830     0.25315102     0.42564718
     0.01063830     0.29161256     0.42564718
     0.01063830     0.33007410     0.42564718
     0.01063830     0.36853564     0.42564718
     0.01063830     0.40699717     0.42564718
     0.01063830     0.44545871     0.42564718
     0.01063830     0.48392025     0.42564718
     0.01063830     0.52238179     0.42564718
     0.01063830     0.56084333     0.42564718
     0.01063830     0.59930487     0.42564718
     0.01063830     0.63776640     0.42564718
     0.01063830     0.67622794     0.42564718
     0.01063830     0.71468948     0.42564718
     0.01063830     0.75315102     0.42564718
     0.01063830     0.79161256     0.42564718
     0.01063830     0.83007410     0.42564718
     0.01063830     0.86853564     0.42564718
     0.01063830     0.90699717     0.42564718
     0.01063830     0.94545871     0.42564718
     0.01063830     0.98392025     0.42564718
     0.03191489     0.02238179     0.42564718
     0.03191489     0.06084333     0.42564718
     0.03191489     0.09930487     0.42564718
     0.03191489     0.13776640     0.42564718
     0.03191489     0.17622794     0.42564718
     0.03191489     0.21468948     0.42564718
     0.03191489     0.25315102     0.42564718
     0.03191489     0.29161256     0.42564718
     0.03191489     0.33007410     0.42564718
     0.03191489     0.36853564     0.42564718
     0.03191489     0.40699717     0.42564718
     0.03191489     0.44545871     0.42564718
     0.03191489     0.48392025     0.42564718
     0.03191489     0.52238179     0.42564718
     0.03191489     0.56084333     0.42564718
     0.03191489     0.59930487     0.42564718
     0.03191489     0.63776640     0.42564718
     0.03191489     0.67622794     0.42564718
     0.03191489     0.71468948     0.42564718
     0.03191489     0.75315102     0.42564718
     0.03191489     0.79161256     0.42564718
     0.03191489     0.83007410     0.42564718
     0.03191489     0.86853564     0.42564718
     0.03191489     0.90699717     0.42564718
     0.03191489     0.94545871     0.42564718
     0.03191489     0.98392025     0.42564718
     0.05319149     0.02238179     0.42564718
     0.05319149     0.06084333     0.42564718
     0.05319149     0.09930487     0.42564718
     0.05319149     0.13776640     0.42564718
     0.05319149     0.17622794     0.42564718
     0.05319149     0.21468948     0.42564718
     0.05319149     0.25315102     0.42564718
     0.05319149     0.29161256     0.42564718
     0.05319149     0.33007410     0.42564718
     0.05319149     0.36853564     0.42564718
     0.05319149     0.40699717     0.42564718
     0.05319149     0.44545871     0.42564718
     0.05319149     0.48392025     0.42564718
     0.05319149     0.52238179     0.42564718
     0.05319149     0.56084333     0.42564718
     0.05319149     0.59930487     0.42564718
     0.05319149     0.63776640     0.42564718
     0.05319149     0.67622794     0.42564718
     0.05319149     0.71468948     0.42564718
     0.05319149     0.75315102     0.42564718
     0.05319149     0.79161256     0.42564718
     0.05319149     0.83007410     0.42564718
     0.05319149     0.86853564     0.42564718
     0.05319149     0.90699717     0.42564718
     0.05319149     0.94545871     0.42564718
     0.05319149     0.98392025     0.42564718
     0.07446809     0.02238179     0.42564718
     0.07446809     0.06084333     0.42564718
     0.07446809     0.09930487     0.42564718
     0.07446809     0.13776640     0.42564718
     0.07446809     0.17622794     0.42564718
     0.07446809     0.21468948     0.42564718
     0.07446809     0.25315102     0.42564718
     0.07446809     0.29161256     0.42564718
     0.07446809     0.33007410     0.42564718
     0.07446809     0.36853564     0.42564718
     0.07446809     0.40699717     0.42564718
     0.07446809     0.44545871     0.42564718
     0.07446809     0.48392025     0.42564718
     0.07446809     0.52238179     0.42564718
     0.07446809     0.56084333     0.42564718
     0.07446809     0.59930487     0.42564718
     0.07446809     0.63776640     0.42564718
     0.07446809     0.67622794     0.42564718
     0.07446809     0.71468948     0.42564718
     0.07446809     0.75315102     0.42564718
     0.07446809     0.79161256     0.42564718
     0.07446809     0.83007410     0.42564718
     0.07446809     0.86853564     0.42564718
     0.07446809     0.90699717     0.42564718
     0.07446809     0.94545871     0.42564718
     0.07446809     0.98392025     0.42564718
     0.09574468     0.02238179     0.42564718
     0.09574468     0.06084333     0.42564718
     0.09574468     0.09930487     0.42564718
     0.09574468     0.13776640     0.42564718
     0.09574468     0.17622794     0.42564718
     0.09574468     0.21468948     0.42564718
     0.09574468     0.25315102     0.42564718
     0.09574468     0.29161256     0.42564718
     0.09574468     0.33007410     0.42564718
     0.09574468     0.36853564     0.42564718
     0.09574468     0.40699717     0.42564718
     0.09574468     0.44545871     0.42564718
     0.09574468     0.48392025     0.42564718
     0.09574468     0.52238179     0.42564718
     0.09574468     0.56084333     0.42564718
     0.09574468     0.59930487     0.42564718
     0.09574468     0.63776640     0.42564718
     0.09574468     0.67622794     0.42564718
     0.09574468     0.71468948     0.42564718
     0.09574468     0.75315102     0.42564718
     0.09574468     0.79161256     0.42564718
     0.09574468     0.83007410     0.42564718
     0.09574468     0.86853564     0.42564718
     0.09574468     0.90699717     0.42564718
     0.09574468     0.94545871     0.42564718
     0.09574468     0.98392025     0.42564718
     0.11702128     0.02238179     0.42564718
     0.11702128     0.06084333     0.42564718
     0.11702128     0.09930487     0.42564718
     0.11702128     0.13776640     0.42564718
     0.11702128     0.17622794     0.42564718
     0.11702128     0.21468948     0.42564718
     0.11702128     0.25315102     0.42564718
     0.11702128     0.29161256     0.42564718
     0.11702128     0.33007410     0.42564718
     0.11702128     0.36853564     0.42564718
     0.11702128     0.40699717     0.42564718
     0.11702128     0.44545871     0.42564718
     0.11702128     0.48392025     0.42564718
     0.11702128     0.52238179     0.42564718
     0.11702128     0.56084333     0.42564718
     0.11702128     0.59930487     0.42564718
     0.11702128     0.63776640     0.42564718
     0.11702128     0.67622794     0.42564718
     0.11702128     0.71468948     0.42564718
     0.11702128     0.75315102     0.42564718
     0.11702128     0.79161256     0.42564718
     0.11702128     0.83007410     0.42564718
     0.11702128     0.86853564     0.42564718
     0.11702128     0.90699717     0.42564718
     0.11702128     0.94545871     0.42564718
     0.11702128     0.98392025     0.42564718
     0.13829787     0.02238179     0.42564718
     0.13829787     0.06084333     0.42564718
     0.13829787     0.09930487     0.42564718
     0.13829787     0.13776640     0.42564718
     0.13829787     0.17622794     0.42564718
     0.13829787     0.21468948     0.42564718
     0.13829787     0.25315102     0.42564718
     0.13829787     0.29161256     0.42564718
     0.13829787     0.33007410     0.42564718
     0.13829787     0.36853564     0.42564718
     0.13829787     0.40699717     0.42564718
     0.13829787     0.44545871     0.42564718
     0.13829787     0.48392025     0.42564718
     0.13829787     0.52238179     0.42564718
     0.13829787     0.56084333     0.42564718
     0.13829787     0.59930487     0.42564718
     0.13829787     0.63776640     0.42564718
     0.13829787     0.67622794     0.42564718
     0.13829787     0.71468948     0.42564718
     0.13829787     0.75315102     0.42564718
     0.13829787     0.79161256     0.42564718
     0.13829787     0.83007410     0.42564718
     0.13829787     0.86853564     0.42564718
     0.13829787     0.90699717     0.42564718
     0.13829787     0.94545871     0.42564718
     0.13829787     0.98392025     0.42564718
     0.15957447     0.02238179     0.42564718
     0.15957447     0.06084333     0.42564718
     0.15957447     0.09930487     0.42564718
     0.15957447     0.13776640     0.42564718
     0.15957447     0.17622794     0.42564718
     0.15957447     0.21468948     0.42564718
     0.15957447     0.25315102     0.42564718
     0.15957447     0.29161256     0.42564718
     0.15957447     0.33007410     0.42564718
     0.15957447     0.36853564     0.42564718
     0.15957447     0.40699717     0.42564718
     0.15957447     0.44545871     0.42564718
     0.15957447     0.48392025     0.42564718
     0.15957447     0.52238179     0.42564718
     0.15957447     0.56084333     0.42564718
     0.15957447     0.59930487     0.42564718
     0.15957447     0.63776640     0.42564718
     0.15957447     0.67622794     0.42564718
     0.15957447     0.71468948     0.42564718
     0.15957447     0.75315102     0.42564718
     0.15957447     0.79161256     0.42564718
     0.15957447     0.83007410     0.42564718
     0.15957447     0.86853564     0.42564718
     0.15957447     0.90699717     0.42564718
     0.15957447     0.94545871     0.42564718
     0.15957447     0.98392025     0.42564718
     0.18085106     0.02238179     0.42564718
     0.18085106     0.06084333     0.42564718
     0.18085106     0.09930487     0.42564718
     0.18085106     0.13776640     0.42564718
     0.18085106     0.17622794     0.42564718
     0.18085106     0.21468948     0.42564718
     0.18085106     0.25315102     0.42564718
     0.18085106     0.29161256     0.42564718
     0.18085106     0.33007410     0.42564718
     0.18085106     0.36853564     0.42564718
     0.18085106     0.40699717     0.42564718
     0.18085106     0.44545871     0.42564718
     0.18085106     0.48392025     0.42564718
     0.18085106     0.52238179     0.42564718
     0.18085106     0.56084333     0.42564718
     0.18085106     0.59930487     0.42564718
     0.18085106     0.63776640     0.42564718
     0.18085106     0.67622794     0.42564718
     0.18085106     0.71468948     0.42564718
     0.18085106     0.75315102     0.42564718
     0.18085106     0.79161256     0.42564718
     0.18085106     0.83007410     0.42564718
     0.18085106     0.86853564     0.42564718
     0.18085106     0.90699717     0.42564718
     0.18085106     0.94545871     0.42564718
     0.18085106     0.98392025     0.42564718
     0.20212766     0.02238179     0.42564718
     0.20212766     0.06084333     0.42564718
     0.20212766     0.09930487     0.42564718
     0.20212766     0.13776640     0.42564718
     0.20212766     0.17622794     0.42564718
     0.20212766     0.21468948     0.42564718
     0.20212766     0.25315102     0.42564718
     0.20212766     0.29161256     0.42564718
     0.20212766     0.33007410     0.42564718
     0.20212766     0.36853564     0.42564718
     0.20212766     0.40699717     0.42564718
     0.20212766     0.44545871     0.42564718
     0.20212766     0.48392025     0.42564718
     0.20212766     0.52238179     0.42564718
     0.20212766     0.56084333     0.42564718
     0.20212766     0.59930487     0.42564718
     0.20212766     0.63776640     0.42564718
     0.20212766     0.67622794     0.42564718
     0.20212766     0.71468948     0.42564718
     0.20212766     0.75315102     0.42564718
     0.20212766     0.79161256     0.42564718
     0.20212766     0.83007410     0.42564718
     0.20212766     0.86853564     0.42564718
     0.20212766     0.90699717     0.42564718
     0.20212766     0.94545871     0.42564718
     0.20212766     0.98392025     0.42564718
     0.22340426     0.02238179     0.42564718
     0.22340426     0.06084333     0.42564718
     0.22340426     0.09930487     0.42564718
     0.22340426     0.13776640     0.42564718
     0.22340426     0.17622794     0.42564718
     0.22340426     0.21468948     0.42564718
     0.22340426     0.25315102     0.42564718
     0.22340426     0.29161256     0.42564718
     0.22340426     0.33007410     0.42564718
     0.22340426     0.36853564     0.42564718
     0.22340426     0.40699717     0.42564718
     0.22340426     0.44545871     0.42564718
     0.22340426     0.48392025     0.42564718
     0.22340426     0.52238179     0.42564718
     0.22340426     0.56084333     0.42564718
     0.22340426     0.59930487     0.42564718
     0.22340426     0.63776640     0.42564718
     0.22340426     0.67622794     0.42564718
     0.22340426     0.71468948     0.42564718
     0.22340426     0.75315102     0.42564718
     0.22340426     0.79161256     0.42564718
     0.22340426     0.83007410     0.42564718
     0.22340426     0.86853564     0.42564718
     0.22340426     0.90699717     0.42564718
     0.22340426     0.94545871     0.42564718
     0.22340426     0.98392025     0.42564718
     0.24468085     0.02238179     0.42564718
     0.24468085     0.06084333     0.42564718
     0.24468085     0.09930487     0.42564718
     0.24468085     0.13776640     0.42564718
     0.24468085     0.17622794     0.42564718
     0.24468085     0.21468948     0.42564718
     0.24468085     0.25315102     0.42564718
     0.24468085     0.29161256     0.42564718
     0.24468085     0.33007410     0.42564718
     0.24468085     0.36853564     0.42564718
     0.24468085     0.40699717     0.42564718
     0.24468085     0.44545871     0.42564718
     0.24468085     0.48392025     0.42564718
     0.24468085     0.52238179     0.42564718
     0.24468085     0.56084333     0.42564718
     0.24468085     0.59930487     0.42564718
     0.24468085     0.63776640     0.42564718
     0.24468085     0.67622794     0.42564718
     0.24468085     0.71468948     0.42564718
     0.24468085     0.75315102     0.42564718
     0.24468085     0.79161256     0.42564718
     0.24468085     0.83007410     0.42564718
     0.24468085     0.86853564     0.42564718
     0.24468085     0.90699717     0.42564718
     0.24468085     0.94545871     0.42564718
     0.24468085     0.98392025     0.42564718
     0.26595745     0.02238179     0.42564718
     0.26595745     0.06084333     0.42564718
     0.26595745     0.09930487     0.42564718
     0.26595745     0.13776640     0.42564718
     0.26595745     0.17622794     0.42564718
     0.26595745     0.21468948     0.42564718
     0.26595745     0.25315102     0.42564718
     0.26595745     0.29161256     0.42564718
     0.26595745     0.33007410     0.42564718
     0.26595745     0.36853564     0.42564718
     0.26595745     0.40699717     0.42564718
     0.26595745     0.44545871     0.42564718
     0.26595745     0.48392025     0.42564718
     0.26595745     0.52238179     0.42564718
     0.26595745     0.56084333     0.42564718
     0.26595745     0.59930487     0.42564718
     0.26595745     0.63776640     0.42564718
     0.26595745     0.67622794     0.42564718
     0.26595745     0.71468948     0.42564718
     0.26595745     0.75315102     0.42564718
     0.26595745     0.79161256     0.42564718
     0.26595745     0.83007410     0.42564718
     0.26595745     0.86853564     0.42564718
     0.26595745     0.90699717     0.42564718
     0.26595745     0.94545871     0.42564718
     0.26595745     0.98392025     0.42564718
     0.28723404     0.02238179     0.42564718
     0.28723404     0.06084333     0.42564718
     0.28723404     0.09930487     0.42564718
     0.28723404     0.13776640     0.42564718
     0.28723404     0.17622794     0.42564718
     0.28723404     0.21468948     0.42564718
     0.28723404     0.25315102     0.42564718
     0.28723404     0.29161256     0.42564718
     0.28723404     0.33007410     0.42564718
     0.28723404     0.36853564     0.42564718
     0.28723404     0.40699717     0.42564718
     0.28723404     0.44545871     0.42564718
     0.28723404     0.48392025     0.42564718
     0.28723404     0.52238179     0.42564718
     0.28723404     0.56084333     0.42564718
     0.28723404     0.59930487     0.42564718
     0.28723404     0.63776640     0.42564718
     0.28723404     0.67622794     0.42564718
     0.28723404     0.71468948     0.42564718
     0.28723404     0.75315102     0.42564718
     0.28723404     0.79161256     0.42564718
     0.28723404     0.83007410     0.42564718
     0.28723404     0.86853564     0.42564718
     0.28723404     0.90699717     0.42564718
     0.28723404     0.94545871     0.42564718
     0.28723404     0.98392025     0.42564718
     0.30851064     0.02238179     0.42564718
     0.30851064     0.06084333     0.42564718
     0.30851064     0.09930487     0.42564718
     0.30851064     0.13776640     0.42564718
     0.30851064     0.17622794     0.42564718
     0.30851064     0.21468948     0.42564718
     0.30851064     0.25315102     0.42564718
     0.30851064     0.29161256     0.42564718
     0.30851064     0.33007410     0.42564718
     0.30851064     0.36853564     0.42564718
     0.30851064     0.40699717     0.42564718
     0.30851064     0.44545871     0.42564718
     0.30851064     0.48392025     0.42564718
     0.30851064     0.52238179     0.42564718
     0.30851064     0.56084333     0.42564718
     0.30851064     0.59930487     0.42564718
     0.30851064     0.63776640     0.42564718
     0.30851064     0.67622794     0.42564718
     0.30851064     0.71468948     0.42564718
     0.30851064     0.75315102     0.42564718
     0.30851064     0.79161256     0.42564718
     0.30851064     0.83007410     0.42564718
     0.30851064     0.86853564     0.42564718
     0.30851064     0.90699717     0.42564718
     0.30851064     0.94545871     0.42564718
     0.30851064     0.98392025     0.42564718
     0.32978723     0.02238179     0.42564718
     0.32978723     0.06084333     0.42564718
     0.32978723     0.09930487     0.42564718
     0.32978723     0.13776640     0.42564718
     0.32978723     0.17622794     0.42564718
     0.32978723     0.21468948     0.42564718
     0.32978723     0.25315102     0.42564718
     0.32978723     0.29161256     0.42564718
     0.32978723     0.33007410     0.42564718
     0.32978723     0.36853564     0.42564718
     0.32978723     0.40699717     0.42564718
     0.32978723     0.44545871     0.42564718
     0.32978723     0.48392025     0.42564718
     0.32978723     0.52238179     0.42564718
     0.32978723     0.56084333     0.42564718
     0.32978723     0.59930487     0.42564718
     0.32978723     0.63776640     0.42564718
     0.32978723     0.67622794     0.42564718
     0.32978723     0.71468948     0.42564718
     0.32978723     0.75315102     0.42564718
     0.32978723     0.79161256     0.42564718
     0.32978723     0.83007410     0.42564718
     0.32978723     0.86853564     0.42564718
     0.32978723     0.90699717     0.42564718
     0.32978723     0.94545871     0.42564718
     0.32978723     0.98392025     0.42564718
     0.35106383     0.02238179     0.42564718
     0.35106383     0.06084333     0.42564718
     0.35106383     0.09930487     0.42564718
     0.35106383     0.13776640     0.42564718
     0.35106383     0.17622794     0.42564718
     0.35106383     0.21468948     0.42564718
     0.35106383     0.25315102     0.42564718
     0.35106383     0.29161256     0.42564718
     0.35106383     0.33007410     0.42564718
     0.35106383     0.36853564     0.42564718
     0.35106383     0.40699717     0.42564718
     0.35106383     0.44545871     0.42564718
     0.35106383     0.48392025     0.42564718
     0.35106383     0.52238179     0.42564718
     0.35106383     0.56084333     0.42564718
     0.35106383     0.59930487     0.42564718
     0.35106383     0.63776640     0.42564718
     0.35106383     0.67622794     0.42564718
     0.35106383     0.71468948     0.42564718
     0.35106383     0.75315102     0.42564718
     0.35106383     0.79161256     0.42564718
     0.35106383     0.83007410     0.42564718
     0.35106383     0.86853564     0.42564718
     0.35106383     0.90699717     0.42564718
     0.35106383     0.94545871     0.42564718
     0.35106383     0.98392025     0.42564718
     0.37234043     0.02238179     0.42564718
     0.37234043     0.06084333     0.42564718
     0.37234043     0.09930487     0.42564718
     0.37234043     0.13776640     0.42564718
     0.37234043     0.17622794     0.42564718
     0.37234043     0.21468948     0.42564718
     0.37234043     0.25315102     0.42564718
     0.37234043     0.29161256     0.42564718
     0.37234043     0.33007410     0.42564718
     0.37234043     0.36853564     0.42564718
     0.37234043     0.40699717     0.42564718
     0.37234043     0.44545871     0.42564718
     0.37234043     0.48392025     0.42564718
     0.37234043     0.52238179     0.42564718
     0.37234043     0.56084333     0.42564718
     0.37234043     0.59930487     0.42564718
     0.37234043     0.63776640     0.42564718
     0.37234043     0.67622794     0.42564718
     0.37234043     0.71468948     0.42564718
     0.37234043     0.75315102     0.42564718
     0.37234043     0.79161256     0.42564718
     0.37234043     0.83007410     0.42564718
     0.37234043     0.86853564     0.42564718
     0.37234043     0.90699717     0.42564718
     0.37234043     0.94545871     0.42564718
     0.37234043     0.98392025     0.42564718
     0.39361702     0.02238179     0.42564718
     0.39361702     0.06084333     0.42564718
     0.39361702     0.09930487     0.42564718
     0.39361702     0.13776640     0.42564718
     0.39361702     0.17622794     0.42564718
     0.39361702     0.21468948     0.42564718
     0.39361702     0.25315102     0.42564718
     0.39361702     0.29161256     0.42564718
     0.39361702     0.33007410     0.42564718
     0.39361702     0.36853564     0.42564718
     0.39361702     0.40699717     0.42564718
     0.39361702     0.44545871     0.42564718
     0.39361702     0.48392025     0.42564718
     0.39361702     0.52238179     0.42564718
     0.39361702     0.56084333     0.42564718
     0.39361702     0.59930487     0.42564718
     0.39361702     0.63776640     0.42564718
     0.39361702     0.67622794     0.42564718
     0.39361702     0.71468948     0.42564718
     0.39361702     0.75315102     0.42564718
     0.39361702     0.79161256     0.42564718
     0.39361702     0.83007410     0.42564718
     0.39361702     0.86853564     0.42564718
     0.39361702     0.90699717     0.42564718
     0.39361702     0.94545871     0.42564718
     0.39361702     0.98392025     0.42564718
     0.41489362     0.02238179     0.42564718
     0.41489362     0.06084333     0.42564718
     0.41489362     0.09930487     0.42564718
     0.41489362     0.13776640     0.42564718
     0.41489362     0.17622794     0.42564718
     0.41489362     0.21468948     0.42564718
     0.41489362     0.25315102     0.42564718
     0.41489362     0.29161256     0.42564718
     0.41489362     0.33007410     0.42564718
     0.41489362     0.36853564     0.42564718
     0.41489362     0.40699717     0.42564718
     0.41489362     0.44545871     0.42564718
     0.41489362     0.48392025     0.42564718
     0.41489362     0.52238179     0.42564718
     0.41489362     0.56084333     0.42564718
     0.41489362     0.59930487     0.42564718
     0.41489362     0.63776640     0.42564718
     0.41489362     0.67622794     0.42564718
     0.41489362     0.71468948     0.42564718
     0.41489362     0.75315102     0.42564718
     0.41489362     0.79161256     0.42564718
     0.41489362     0.83007410     0.42564718
     0.41489362     0.86853564     0.42564718
     0.41489362     0.90699717     0.42564718
     0.41489362     0.94545871     0.42564718
     0.41489362     0.98392025     0.42564718
     0.43617021     0.02238179     0.42564718
     0.43617021     0.06084333     0.42564718
     0.43617021     0.09930487     0.42564718
     0.43617021     0.13776640     0.42564718
     0.43617021     0.17622794     0.42564718
     0.43617021     0.21468948     0.42564718
     0.43617021     0.25315102     0.42564718
     0.43617021     0.29161256     0.42564718
     0.43617021     0.33007410     0.42564718
     0.43617021     0.36853564     0.42564718
     0.43617021     0.40699717     0.42564718
     0.43617021     0.44545871     0.42564718
     0.43617021     0.48392025     0.42564718
     0.43617021     0.52238179     0.42564718
     0.43617021     0.56084333     0.42564718
     0.43617021     0.59930487     0.42564718
     0.43617021     0.63776640     0.42564718
     0.43617021     0.67622794     0.42564718
     0.43617021     0.71468948     0.42564718
     0.43617021     0.75315102     0.42564718
     0.43617021     0.79161256     0.42564718
     0.43617021     0.83007410     0.42564718
     0.43617021     0.86853564     0.42564718
     0.43617021     0.90699717     0.42564718
     0.43617021     0.94545871     0.42564718
     0.43617021     0.98392025     0.42564718
     0.45744681     0.02238179     0.42564718
     0.45744681     0.06084333     0.42564718
     0.45744681     0.09930487     0.42564718
     0.45744681     0.13776640     0.42564718
     0.45744681     0.17622794     0.42564718
     0.45744681     0.21468948     0.42564718
     0.45744681     0.25315102     0.42564718
     0.45744681     0.29161256     0.42564718
     0.45744681     0.33007410     0.42564718
     0.45744681     0.36853564     0.42564718
     0.45744681     0.40699717     0.42564718
     0.45744681     0.44545871     0.42564718
     0.45744681     0.48392025     0.42564718
     0.45744681     0.52238179     0.42564718
     0.45744681     0.56084333     0.42564718
     0.45744681     0.59930487     0.42564718
     0.45744681     0.63776640     0.42564718
     0.45744681     0.67622794     0.42564718
     0.45744681     0.71468948     0.42564718
     0.45744681     0.75315102     0.42564718
     0.45744681     0.79161256     0.42564718
     0.45744681     0.83007410     0.42564718
     0.45744681     0.86853564     0.42564718
     0.45744681     0.90699717     0.42564718
     0.45744681     0.94545871     0.42564718
     0.45744681     0.98392025     0.42564718
     0.47872340     0.02238179     0.42564718
     0.47872340     0.06084333     0.42564718
     0.47872340     0.09930487     0.42564718
     0.47872340     0.13776640     0.42564718
     0.47872340     0.17622794     0.42564718
     0.47872340     0.21468948     0.42564718
     0.47872340     0.25315102     0.42564718
     0.47872340     0.29161256     0.42564718
     0.47872340     0.33007410     0.42564718
     0.47872340     0.36853564     0.42564718
     0.47872340     0.40699717     0.42564718
     0.47872340     0.44545871     0.42564718
     0.47872340     0.48392025     0.42564718
     0.47872340     0.52238179     0.42564718
     0.47872340     0.56084333     0.42564718
     0.47872340     0.59930487     0.42564718
     0.47872340     0.63776640     0.42564718
     0.47872340     0.67622794     0.42564718
     0.47872340     0.71468948     0.42564718
     0.47872340     0.75315102     0.42564718
     0.47872340     0.79161256     0.42564718
     0.47872340     0.83007410     0.42564718
     0.47872340     0.86853564     0.42564718
     0.47872340     0.90699717     0.42564718
     0.47872340     0.94545871     0.42564718
     0.47872340     0.98392025     0.42564718
     0.50000000     0.02238179     0.42564718
     0.50000000     0.06084333     0.42564718
     0.50000000     0.09930487     0.42564718
     0.50000000     0.13776640     0.42564718
     0.50000000     0.17622794     0.42564718
     0.50000000     0.21468948     0.42564718
     0.50000000     0.25315102     0.42564718
     0.50000000     0.29161256     0.42564718
     0.50000000     0.33007410     0.42564718
     0.50000000     0.36853564     0.42564718
     0.50000000     0.40699717     0.42564718
     0.50000000     0.44545871     0.42564718
     0.50000000     0.48392025     0.42564718
     0.50000000     0.52238179     0.42564718
     0.50000000     0.56084333     0.42564718
     0.50000000     0.59930487     0.42564718
     0.50000000     0.63776640     0.42564718
     0.50000000     0.67622794     0.42564718
     0.50000000     0.71468948     0.42564718
     0.50000000     0.75315102     0.42564718
     0.50000000     0.79161256     0.42564718
     0.50000000     0.83007410     0.42564718
     0.50000000     0.86853564     0.42564718
     0.50000000     0.90699717     0.42564718
     0.50000000     0.94545871     0.42564718
     0.50000000     0.98392025     0.42564718
     0.52127660     0.02238179     0.42564718
     0.52127660     0.06084333     0.42564718
     0.52127660     0.09930487     0.42564718
     0.52127660     0.13776640     0.42564718
     0.52127660     0.17622794     0.42564718
     0.52127660     0.21468948     0.42564718
     0.52127660     0.25315102     0.42564718
     0.52127660     0.29161256     0.42564718
     0.52127660     0.33007410     0.42564718
     0.52127660     0.36853564     0.42564718
     0.52127660     0.40699717     0.42564718
     0.52127660     0.44545871     0.42564718
     0.52127660     0.48392025     0.42564718
     0.52127660     0.52238179     0.42564718
     0.52127660     0.56084333     0.42564718
     0.52127660     0.59930487     0.42564718
     0.52127660     0.63776640     0.42564718
     0.52127660     0.67622794     0.42564718
     0.52127660     0.71468948     0.42564718
     0.52127660     0.75315102     0.42564718
     0.52127660     0.79161256     0.42564718
     0.52127660     0.83007410     0.42564718
     0.52127660     0.86853564     0.42564718