Generated by Twist2D
    1.0
     158.25598248       0.00000000       0.00000000
       0.00000000     110.76215822       0.00000000
       0.00000000       0.00000000      20.00000000
    P
    9604
Direct
     0.01041667     0.02327706     0.42564718
     0.01041667     0.06327706     0.42564718
     0.01041667     0.10327706     0.42564718
     0.01041667     0.14327706     0.42564718
     0.01041667     0.18327706     0.42564718
     0.01041667     0.22327706     0.42564718
     0.01041667     0.26327706     0.42564718
     0.01041667     0.30327706     0.42564718
     0.01041667     0.34327706     0.42564718
     0.01041667     0.38327706     0.42564718
     0.01041667     0.42327706     0.42564718
     0.01041667     0.46327706     0.42564718
     0.01041667     0.50327706     0.42564718
     0.01041667     0.54327706     0.42564718
     0.01041667     0.58327706     0.42564718
     0.01041667     0.62327706     0.42564718
     0.01041667     0.66327706     0.42564718
     0.01041667     0.70327706     0.42564718
     0.01041667     0.74327706     0.42564718
     0.01041667     0.78327706     0.42564718
     0.01041667     0.82327706     0.42564718
     0.01041667     0.86327706     0.42564718
     0.01041667     0.90327706     0.42564718
     0.01041667     0.94327706     0.42564718
     0.01041667     0.98327706     0.42564718
     0.03125000     0.02327706     0.42564718
     0.03125000     0.06327706     0.42564718
     0.03125000     0.10327706     0.42564718
     0.03125000     0.14327706     0.42564718
     0.03125000     0.18327706     0.42564718
     0.03125000     0.22327706     0.42564718
     0.03125000     0.26327706     0.42564718
     0.03125000     0.30327706     0.42564718
     0.03125000     0.34327706     0.42564718
     0.03125000     0.38327706     0.42564718
     0.03125000     0.42327706     0.42564718
     0.03125000     0.46327706     0.42564718
     0.03125000     0.50327706     0.42564718
     0.03125000     0.54327706     0.42564718
     0.03125000     0.58327706     0.42564718
     0.03125000     0.62327706     0.42564718
     0.03125000     0.66327706     0.42564718
     0.03125000     0.70327706     0.42564718
     0.03125000     0.74327706     0.42564718
     0.03125000     0.78327706     0.42564718
     0.03125000     0.82327706     0.42564718
     0.03125000     0.86327706     0.42564718
     0.03125000     0.90327706     0.42564718
     0.03125000     0.94327706     0.42564718
     0.03125000     0.98327706     0.42564718
     0.05208333     0.02327706     0.42564718
     0.05208333     0.06327706     0.42564718
     0.05208333     0.10327706     0.42564718
     0.05208333     0.14327706     0.42564718
     0.05208333     0.18327706     0.42564718
     0.05208333     0.22327706     0.42564718
     0.05208333     0.26327706     0.42564718
     0.05208333     0.30327706     0.42564718
     0.05208333     0.34327706     0.42564718
     0.05208333     0.38327706     0.42564718
     0.05208333     0.42327706     0.42564718
     0.05208333     0.46327706     0.42564718
     0.05208333     0.50327706     0.42564718
     0.05208333     0.54327706     0.42564718
     0.05208333     0.58327706     0.42564718
     0.05208333     0.62327706     0.42564718
     0.05208333     0.66327706     0.42564718
     0.05208333     0.70327706     0.42564718
     0.05208333     0.74327706     0.42564718
     0.05208333     0.78327706     0.42564718
     0.05208333     0.82327706     0.42564718
     0.05208333     0.86327706     0.42564718
     0.05208333     0.90327706     0.42564718
     0.05208333     0.94327706     0.42564718
     0.05208333     0.98327706     0.42564718
     0.07291667     0.02327706     0.42564718
     0.07291667     0.06327706     0.42564718
     0.07291667     0.10327706     0.42564718
     0.07291667     0.14327706     0.42564718
     0.07291667     0.18327706     0.42564718
     0.07291667     0.22327706     0.42564718
     0.07291667     0.26327706     0.42564718
     0.07291667     0.30327706     0.42564718
     0.07291667     0.34327706     0.42564718
     0.07291667     0.38327706     0.42564718
     0.07291667     0.42327706     0.42564718
     0.07291667     0.46327706     0.42564718
     0.07291667     0.50327706     0.42564718
     0.07291667     0.54327706     0.42564718
     0.07291667     0.58327706     0.42564718
     0.07291667     0.62327706     0.42564718
     0.07291667     0.66327706     0.42564718
     0.07291667     0.70327706     0.42564718
     0.07291667     0.74327706     0.42564718
     0.07291667     0.78327706     0.42564718
     0.07291667     0.82327706     0.42564718
     0.07291667     0.86327706     0.42564718
     0.07291667     0.90327706     0.42564718
     0.07291667     0.94327706     0.42564718
     0.07291667     0.98327706     0.42564718
     0.09375000     0.02327706     0.42564718
     0.09375000     0.06327706     0.42564718
     0.09375000     0.10327706     0.42564718
     0.09375000     0.14327706     0.42564718
     0.09375000     0.18327706     0.42564718
     0.09375000     0.22327706     0.42564718
     0.09375000     0.26327706     0.42564718
     0.09375000     0.30327706     0.42564718
     0.09375000     0.34327706     0.42564718
     0.09375000     0.38327706     0.42564718
     0.09375000     0.42327706     0.42564718
     0.09375000     0.46327706     0.42564718
     0.09375000     0.50327706     0.42564718
     0.09375000     0.54327706     0.42564718
     0.09375000     0.58327706     0.42564718
     0.09375000     0.62327706     0.42564718
     0.09375000     0.66327706     0.42564718
     0.09375000     0.70327706     0.42564718
     0.09375000     0.74327706     0.42564718
     0.09375000     0.78327706     0.42564718
     0.09375000     0.82327706     0.42564718
     0.09375000     0.86327706     0.42564718
     0.09375000     0.90327706     0.42564718
     0.09375000     0.94327706     0.42564718
     0.09375000     0.98327706     0.42564718
     0.11458333     0.02327706     0.42564718
     0.11458333     0.06327706     0.42564718
     0.11458333     0.10327706     0.42564718
     0.11458333     0.14327706     0.42564718
     0.11458333     0.18327706     0.42564718
     0.11458333     0.22327706     0.42564718
     0.11458333     0.26327706     0.42564718
     0.11458333     0.30327706     0.42564718
     0.11458333     0.34327706     0.42564718
     0.11458333     0.38327706     0.42564718
     0.11458333     0.42327706     0.42564718
     0.11458333     0.46327706     0.42564718
     0.11458333     0.50327706     0.42564718
     0.11458333     0.54327706     0.42564718
     0.11458333     0.58327706     0.42564718
     0.11458333     0.62327706     0.42564718
     0.11458333     0.66327706     0.42564718
     0.11458333     0.70327706     0.42564718
     0.11458333     0.74327706     0.42564718
     0.11458333     0.78327706     0.42564718
     0.11458333     0.82327706     0.42564718
     0.11458333     0.86327706     0.42564718
     0.11458333     0.90327706     0.42564718
     0.11458333     0.94327706     0.42564718
     0.11458333     0.98327706     0.42564718
     0.13541667     0.02327706     0.42564718
     0.13541667     0.06327706     0.42564718
     0.13541667     0.10327706     0.42564718
     0.13541667     0.14327706     0.42564718
     0.13541667     0.18327706     0.42564718
     0.13541667     0.22327706     0.42564718
     0.13541667     0.26327706     0.42564718
     0.13541667     0.30327706     0.42564718
     0.13541667     0.34327706     0.42564718
     0.13541667     0.38327706     0.42564718
     0.13541667     0.42327706     0.42564718
     0.13541667     0.46327706     0.42564718
     0.13541667     0.50327706     0.42564718
     0.13541667     0.54327706     0.42564718
     0.13541667     0.58327706     0.42564718
     0.13541667     0.62327706     0.42564718
     0.13541667     0.66327706     0.42564718
     0.13541667     0.70327706     0.42564718
     0.13541667     0.74327706     0.42564718
     0.13541667     0.78327706     0.42564718
     0.13541667     0.82327706     0.42564718
     0.13541667     0.86327706     0.42564718
     0.13541667     0.90327706     0.42564718
     0.13541667     0.94327706     0.42564718
     0.13541667     0.98327706     0.42564718
     0.15625000     0.02327706     0.42564718
     0.15625000     0.06327706     0.42564718
     0.15625000     0.10327706     0.42564718
     0.15625000     0.14327706     0.42564718
     0.15625000     0.18327706     0.42564718
     0.15625000     0.22327706     0.42564718
     0.15625000     0.26327706     0.42564718
     0.15625000     0.30327706     0.42564718
     0.15625000     0.34327706     0.42564718
     0.15625000     0.38327706     0.42564718
     0.15625000     0.42327706     0.42564718
     0.15625000     0.46327706     0.42564718
     0.15625000     0.50327706     0.42564718
     0.15625000     0.54327706     0.42564718
     0.15625000     0.58327706     0.42564718
     0.15625000     0.62327706     0.42564718
     0.15625000     0.66327706     0.42564718
     0.15625000     0.70327706     0.42564718
     0.15625000     0.74327706     0.42564718
     0.15625000     0.78327706     0.42564718
     0.15625000     0.82327706     0.42564718
     0.15625000     0.86327706     0.42564718
     0.15625000     0.90327706     0.42564718
     0.15625000     0.94327706     0.42564718
     0.15625000     0.98327706     0.42564718
     0.17708333     0.02327706     0.42564718
     0.17708333     0.06327706     0.42564718
     0.17708333     0.10327706     0.42564718
     0.17708333     0.14327706     0.42564718
     0.17708333     0.18327706     0.42564718
     0.17708333     0.22327706     0.42564718
     0.17708333     0.26327706     0.42564718
     0.17708333     0.30327706     0.42564718
     0.17708333     0.34327706     0.42564718
     0.17708333     0.38327706     0.42564718
     0.17708333     0.42327706     0.42564718
     0.17708333     0.46327706     0.42564718
     0.17708333     0.50327706     0.42564718
     0.17708333     0.54327706     0.42564718
     0.17708333     0.58327706     0.42564718
     0.17708333     0.62327706     0.42564718
     0.17708333     0.66327706     0.42564718
     0.17708333     0.70327706     0.42564718
     0.17708333     0.74327706     0.42564718
     0.17708333     0.78327706     0.42564718
     0.17708333     0.82327706     0.42564718
     0.17708333     0.86327706     0.42564718
     0.17708333     0.90327706     0.42564718
     0.17708333     0.94327706     0.42564718
     0.17708333     0.98327706     0.42564718
     0.19791667     0.02327706     0.42564718
     0.19791667     0.06327706     0.42564718
     0.19791667     0.10327706     0.42564718
     0.19791667     0.14327706     0.42564718
     0.19791667     0.18327706     0.42564718
     0.19791667     0.22327706     0.42564718
     0.19791667     0.26327706     0.42564718
     0.19791667     0.30327706     0.42564718
     0.19791667     0.34327706     0.42564718
     0.19791667     0.38327706     0.42564718
     0.19791667     0.42327706     0.42564718
     0.19791667     0.46327706     0.42564718
     0.19791667     0.50327706     0.42564718
     0.19791667     0.54327706     0.42564718
     0.19791667     0.58327706     0.42564718
     0.19791667     0.62327706     0.42564718
     0.19791667     0.66327706     0.42564718
     0.19791667     0.70327706     0.42564718
     0.19791667     0.74327706     0.42564718
     0.19791667     0.78327706     0.42564718
     0.19791667     0.82327706     0.42564718
     0.19791667     0.86327706     0.42564718
     0.19791667     0.90327706     0.42564718
     0.19791667     0.94327706     0.42564718
     0.19791667     0.98327706     0.42564718
     0.21875000     0.02327706     0.42564718
     0.21875000     0.06327706     0.42564718
     0.21875000     0.10327706     0.42564718
     0.21875000     0.14327706     0.42564718
     0.21875000     0.18327706     0.42564718
     0.21875000     0.22327706     0.42564718
     0.21875000     0.26327706     0.42564718
     0.21875000     0.30327706     0.42564718
     0.21875000     0.34327706     0.42564718
     0.21875000     0.38327706     0.42564718
     0.21875000     0.42327706     0.42564718
     0.21875000     0.46327706     0.42564718
     0.21875000     0.50327706     0.42564718
     0.21875000     0.54327706     0.42564718
     0.21875000     0.58327706     0.42564718
     0.21875000     0.62327706     0.42564718
     0.21875000     0.66327706     0.42564718
     0.21875000     0.70327706     0.42564718
     0.21875000     0.74327706     0.42564718
     0.21875000     0.78327706     0.42564718
     0.21875000     0.82327706     0.42564718
     0.21875000     0.86327706     0.42564718
     0.21875000     0.90327706     0.42564718
     0.21875000     0.94327706     0.42564718
     0.21875000     0.98327706     0.42564718
     0.23958333     0.02327706     0.42564718
     0.23958333     0.06327706     0.42564718
     0.23958333     0.10327706     0.42564718
     0.23958333     0.14327706     0.42564718
     0.23958333     0.18327706     0.42564718
     0.23958333     0.22327706     0.42564718
     0.23958333     0.26327706     0.42564718
     0.23958333     0.30327706     0.42564718
     0.23958333     0.34327706     0.42564718
     0.23958333     0.38327706     0.42564718
     0.23958333     0.42327706     0.42564718
     0.23958333     0.46327706     0.42564718
     0.23958333     0.50327706     0.42564718
     0.23958333     0.54327706     0.42564718
     0.23958333     0.58327706     0.42564718
     0.23958333     0.62327706     0.42564718
     0.23958333     0.66327706     0.42564718
     0.23958333     0.70327706     0.42564718
     0.23958333     0.74327706     0.42564718
     0.23958333     0.78327706     0.42564718
     0.23958333     0.82327706     0.42564718
     0.23958333     0.86327706     0.42564718
     0.23958333     0.90327706     0.42564718
     0.23958333     0.94327706     0.42564718
     0.23958333     0.98327706     0.42564718
     0.26041667     0.02327706     0.42564718
     0.26041667     0.06327706     0.42564718
     0.26041667     0.10327706     0.42564718
     0.26041667     0.14327706     0.42564718
     0.26041667     0.18327706     0.42564718
     0.26041667     0.22327706     0.42564718
     0.26041667     0.26327706     0.42564718
     0.26041667     0.30327706     0.42564718
     0.26041667     0.34327706     0.42564718
     0.26041667     0.38327706     0.42564718
     0.26041667     0.42327706     0.42564718
     0.26041667     0.46327706     0.42564718
     0.26041667     0.50327706     0.42564718
     0.26041667     0.54327706     0.42564718
     0.26041667     0.58327706     0.42564718
     0.26041667     0.62327706     0.42564718
     0.26041667     0.66327706     0.42564718
     0.26041667     0.70327706     0.42564718
     0.26041667     0.74327706     0.42564718
     0.26041667     0.78327706     0.42564718
     0.26041667     0.82327706     0.42564718
     0.26041667     0.86327706     0.42564718
     0.26041667     0.90327706     0.42564718
     0.26041667     0.94327706     0.42564718
     0.26041667     0.98327706     0.42564718
     0.28125000     0.02327706     0.42564718
     0.28125000     0.06327706     0.42564718
     0.28125000     0.10327706     0.42564718
     0.28125000     0.14327706     0.42564718
     0.28125000     0.18327706     0.42564718
     0.28125000     0.22327706     0.42564718
     0.28125000     0.26327706     0.42564718
     0.28125000     0.30327706     0.42564718
     0.28125000     0.34327706     0.42564718
     0.28125000     0.38327706     0.42564718
     0.28125000     0.42327706     0.42564718
     0.28125000     0.46327706     0.42564718
     0.28125000     0.50327706     0.42564718
     0.28125000     0.54327706     0.42564718
     0.28125000     0.58327706     0.42564718
     0.28125000     0.62327706     0.42564718
     0.28125000     0.66327706     0.42564718
     0.28125000     0.70327706     0.42564718
     0.28125000     0.74327706     0.42564718
     0.28125000     0.78327706     0.42564718
     0.28125000     0.82327706     0.42564718
     0.28125000     0.86327706     0.42564718
     0.28125000     0.90327706     0.42564718
     0.28125000     0.94327706     0.42564718
     0.28125000     0.98327706     0.42564718
     0.30208333     0.02327706     0.42564718
     0.30208333     0.06327706     0.42564718
     0.30208333     0.10327706     0.42564718
     0.30208333     0.14327706     0.42564718
     0.30208333     0.18327706     0.42564718
     0.30208333     0.22327706     0.42564718
     0.30208333     0.26327706     0.42564718
     0.30208333     0.30327706     0.42564718
     0.30208333     0.34327706     0.42564718
     0.30208333     0.38327706     0.42564718
     0.30208333     0.42327706     0.42564718
     0.30208333     0.46327706     0.42564718
     0.30208333     0.50327706     0.42564718
     0.30208333     0.54327706     0.42564718
     0.30208333     0.58327706     0.42564718
     0.30208333     0.62327706     0.42564718
     0.30208333     0.66327706     0.42564718
     0.30208333     0.70327706     0.42564718
     0.30208333     0.74327706     0.42564718
     0.30208333     0.78327706     0.42564718
     0.30208333     0.82327706     0.42564718
     0.30208333     0.86327706     0.42564718
     0.30208333     0.90327706     0.42564718
     0.30208333     0.94327706     0.42564718
     0.30208333     0.98327706     0.42564718
     0.32291667     0.02327706     0.42564718
     0.32291667     0.06327706     0.42564718
     0.32291667     0.10327706     0.42564718
     0.32291667     0.14327706     0.42564718
     0.32291667     0.18327706     0.42564718
     0.32291667     0.22327706     0.42564718
     0.32291667     0.26327706     0.42564718
     0.32291667     0.30327706     0.42564718
     0.32291667     0.34327706     0.42564718
     0.32291667     0.38327706     0.42564718
     0.32291667     0.42327706     0.42564718
     0.32291667     0.46327706     0.42564718
     0.32291667     0.50327706     0.42564718
     0.32291667     0.54327706     0.42564718
     0.32291667     0.58327706     0.42564718
     0.32291667     0.62327706     0.42564718
     0.32291667     0.66327706     0.42564718
     0.32291667     0.70327706     0.42564718
     0.32291667     0.74327706     0.42564718
     0.32291667     0.78327706     0.42564718
     0.32291667     0.82327706     0.42564718
     0.32291667     0.86327706     0.42564718
     0.32291667     0.90327706     0.42564718
     0.32291667     0.94327706     0.42564718
     0.32291667     0.98327706     0.42564718
     0.34375000     0.02327706     0.42564718
     0.34375000     0.06327706     0.42564718
     0.34375000     0.10327706     0.42564718
     0.34375000     0.14327706     0.42564718
     0.34375000     0.18327706     0.42564718
     0.34375000     0.22327706     0.42564718
     0.34375000     0.26327706     0.42564718
     0.34375000     0.30327706     0.42564718
     0.34375000     0.34327706     0.42564718
     0.34375000     0.38327706     0.42564718
     0.34375000     0.42327706     0.42564718
     0.34375000     0.46327706     0.42564718
     0.34375000     0.50327706     0.42564718
     0.34375000     0.54327706     0.42564718
     0.34375000     0.58327706     0.42564718
     0.34375000     0.62327706     0.42564718
     0.34375000     0.66327706     0.42564718
     0.34375000     0.70327706     0.42564718
     0.34375000     0.74327706     0.42564718
     0.34375000     0.78327706     0.42564718
     0.34375000     0.82327706     0.42564718
     0.34375000     0.86327706     0.42564718
     0.34375000     0.90327706     0.42564718
     0.34375000     0.94327706     0.42564718
     0.34375000     0.98327706     0.42564718
     0.36458333     0.02327706     0.42564718
     0.36458333     0.06327706     0.42564718
     0.36458333     0.10327706     0.42564718
     0.36458333     0.14327706     0.42564718
     0.36458333     0.18327706     0.42564718
     0.36458333     0.22327706     0.42564718
     0.36458333     0.26327706     0.42564718
     0.36458333     0.30327706     0.42564718
     0.36458333     0.34327706     0.42564718
     0.36458333     0.38327706     0.42564718
     0.36458333     0.42327706     0.42564718
     0.36458333     0.46327706     0.42564718
     0.36458333     0.50327706     0.42564718
     0.36458333     0.54327706     0.42564718
     0.36458333     0.58327706     0.42564718
     0.36458333     0.62327706     0.42564718
     0.36458333     0.66327706     0.42564718
     0.36458333     0.70327706     0.42564718
     0.36458333     0.74327706     0.42564718
     0.36458333     0.78327706     0.42564718
     0.36458333     0.82327706     0.42564718
     0.36458333     0.86327706     0.42564718
     0.36458333     0.90327706     0.42564718
     0.36458333     0.94327706     0.42564718
     0.36458333     0.98327706     0.42564718
     0.38541667     0.02327706     0.42564718
     0.38541667     0.06327706     0.42564718
     0.38541667     0.10327706     0.42564718
     0.38541667     0.14327706     0.42564718
     0.38541667     0.18327706     0.42564718
     0.38541667     0.22327706     0.42564718
     0.38541667     0.26327706     0.42564718
     0.38541667     0.30327706     0.42564718
     0.38541667     0.34327706     0.42564718
     0.38541667     0.38327706     0.42564718
     0.38541667     0.42327706     0.42564718
     0.38541667     0.46327706     0.42564718
     0.38541667     0.50327706     0.42564718
     0.38541667     0.54327706     0.42564718
     0.38541667     0.58327706     0.42564718
     0.38541667     0.62327706     0.42564718
     0.38541667     0.66327706     0.42564718
     0.38541667     0.70327706     0.42564718
     0.38541667     0.74327706     0.42564718
     0.38541667     0.78327706     0.42564718
     0.38541667     0.82327706     0.42564718
     0.38541667     0.86327706     0.42564718
     0.38541667     0.90327706     0.42564718
     0.38541667     0.94327706     0.42564718
     0.38541667     0.98327706     0.42564718
     0.40625000     0.02327706     0.42564718
     0.40625000     0.06327706     0.42564718
     0.40625000     0.10327706     0.42564718
     0.40625000     0.14327706     0.42564718
     0.40625000     0.18327706     0.42564718
     0.40625000     0.22327706     0.42564718
     0.40625000     0.26327706     0.42564718
     0.40625000     0.30327706     0.42564718
     0.40625000     0.34327706     0.42564718
     0.40625000     0.38327706     0.42564718
     0.40625000     0.42327706     0.42564718
     0.40625000     0.46327706     0.42564718
     0.40625000     0.50327706     0.42564718
     0.40625000     0.54327706     0.42564718
     0.40625000     0.58327706     0.42564718
     0.40625000     0.62327706     0.42564718
     0.40625000     0.66327706     0.42564718
     0.40625000     0.70327706     0.42564718
     0.40625000     0.74327706     0.42564718
     0.40625000     0.78327706     0.42564718
     0.40625000     0.82327706     0.42564718
     0.40625000     0.86327706     0.42564718
     0.40625000     0.90327706     0.42564718
     0.40625000     0.94327706     0.42564718
     0.40625000     0.98327706     0.42564718
     0.42708333     0.02327706     0.42564718
     0.42708333     0.06327706     0.42564718
     0.42708333     0.10327706     0.42564718
     0.42708333     0.14327706     0.42564718
     0.42708333     0.18327706     0.42564718
     0.42708333     0.22327706     0.42564718
     0.42708333     0.26327706     0.42564718
     0.42708333     0.30327706     0.42564718
     0.42708333     0.34327706     0.42564718
     0.42708333     0.38327706     0.42564718
     0.42708333     0.42327706     0.42564718
     0.42708333     0.46327706     0.42564718
     0.42708333     0.50327706     0.42564718
     0.42708333     0.54327706     0.42564718
     0.42708333     0.58327706     0.42564718
     0.42708333     0.62327706     0.42564718
     0.42708333     0.66327706     0.42564718
     0.42708333     0.70327706     0.42564718
     0.42708333     0.74327706     0.42564718
     0.42708333     0.78327706     0.42564718
     0.42708333     0.82327706     0.42564718
     0.42708333     0.86327706     0.42564718
     0.42708333     0.90327706     0.42564718
     0.42708333     0.94327706     0.42564718
     0.42708333     0.98327706     0.42564718
     0.44791667     0.02327706     0.42564718
     0.44791667     0.06327706     0.42564718
     0.44791667     0.10327706     0.42564718
     0.44791667     0.14327706     0.42564718
     0.44791667     0.18327706     0.42564718
     0.44791667     0.22327706     0.42564718
     0.44791667     0.26327706     0.42564718
     0.44791667     0.30327706     0.42564718
     0.44791667     0.34327706     0.42564718
     0.44791667     0.38327706     0.42564718
     0.44791667     0.42327706     0.42564718
     0.44791667     0.46327706     0.42564718
     0.44791667     0.50327706     0.42564718
     0.44791667     0.54327706     0.42564718
     0.44791667     0.58327706     0.42564718
     0.44791667     0.62327706     0.42564718
     0.44791667     0.66327706     0.42564718
     0.44791667     0.70327706     0.42564718
     0.44791667     0.74327706     0.42564718
     0.44791667     0.78327706     0.42564718
     0.44791667     0.82327706     0.42564718
     0.44791667     0.86327706     0.42564718
     0.44791667     0.90327706     0.42564718
     0.44791667     0.94327706     0.42564718
     0.44791667     0.98327706     0.42564718
     0.46875000     0.02327706     0.42564718
     0.46875000     0.06327706     0.42564718
     0.46875000     0.10327706     0.42564718
     0.46875000     0.14327706     0.42564718
     0.46875000     0.18327706     0.42564718
     0.46875000     0.22327706     0.42564718
     0.46875000     0.26327706     0.42564718
     0.46875000     0.30327706     0.42564718
     0.46875000     0.34327706     0.42564718
     0.46875000     0.38327706     0.42564718
     0.46875000     0.42327706     0.42564718
     0.46875000     0.46327706     0.42564718
     0.46875000     0.50327706     0.42564718
     0.46875000     0.54327706     0.42564718
     0.46875000     0.58327706     0.42564718
     0.46875000     0.62327706     0.42564718
     0.46875000     0.66327706     0.42564718
     0.46875000     0.70327706     0.42564718
     0.46875000     0.74327706     0.42564718
     0.46875000     0.78327706     0.42564718
     0.46875000     0.82327706     0.42564718
     0.46875000     0.86327706     0.42564718
     0.46875000     0.90327706     0.42564718
     0.46875000     0.94327706     0.42564718
     0.46875000     0.98327706     0.42564718
     0.48958333     0.02327706     0.42564718
     0.48958333     0.06327706     0.42564718
     0.48958333     0.10327706     0.42564718
     0.48958333     0.14327706     0.42564718
     0.48958333     0.18327706     0.42564718
     0.48958333     0.22327706     0.42564718
     0.48958333     0.26327706     0.42564718
     0.48958333     0.30327706     0.42564718
     0.48958333     0.34327706     0.42564718
     0.48958333     0.38327706     0.42564718
     0.48958333     0.42327706     0.42564718
     0.48958333     0.46327706     0.42564718
     0.48958333     0.50327706     0.42564718
     0.48958333     0.54327706     0.42564718
     0.48958333     0.58327706     0.42564718
     0.48958333     0.62327706     0.42564718
     0.48958333     0.66327706     0.42564718
     0.48958333     0.70327706     0.42564718
     0.48958333     0.74327706     0.42564718
     0.48958333     0.78327706     0.42564718
     0.48958333     0.82327706     0.42564718
     0.48958333     0.86327706     0.42564718
     0.48958333     0.90327706     0.42564718
     0.48958333     0.94327706     0.42564718
     0.48958333     0.98327706     0.42564718
     0.51041667     0.02327706     0.42564718
     0.51041667     0.06327706     0.42564718
     0.51041667     0.10327706     0.42564718
     0.51041667     0.14327706     0.42564718
     0.51041667     0.18327706     0.42564718
     0.51041667     0.22327706     0.42564718
     0.51041667     0.26327706     0.42564718
     0.51041667     0.30327706     0.42564718
     0.51041667     0.34327706     0.42564718
     0.51041667     0.38327706     0.42564718
     0.51041667     0.42327706     0.42564718
     0.51041667     0.46327706     0.42564718
     0.51041667     0.50327706     0.42564718
     0.51041667     0.54327706     0.42564718
     0.51041667     0.58327706     0.42564718
     0.51041667     0.62327706     0.42564718
     0.51041667     0.66327706     0.42564718
     0.51041667     0.70327706     0.42564718
     0.51041667     0.74327706     0.42564718
     0.51041667     0.78327706     0.42564718
     0.51041667     0.82327706     0.42564718
     0.51041667     0.86327706     0.42564718
     0.51041667     0.90327706     0.42564718
     0.51041667     0.94327706     0.42564718
     0.51041667     0.98327706     0.42564718
     0.53125000     0.02327706     0.42564718
     0.53125000     0.06327706     0.42564718
     0.53125000     0.10327706     0.42564718
     0.53125000     0.14327706     0.42564718
     0.53125000     0.18327706     0.42564718
     0.53125000     0.22327706     0.42564718
     0.53125000     0.26327706     0.42564718
     0.53125000     0.30327706     0.42564718
     0.53125000     0.34327706     0.42564718
     0.53125000     0.38327706     0.42564718
     0.53125000     0.42327706     0.42564718
     0.53125000     0.46327706     0.42564718
     0.53125000     0.50327706     0.42564718
     0.53125000     0.54327706     0.42564718
     0.53125000     0.58327706     0.42564718
     0.53125000     0.62327706     0.42564718
     0.53125000     0.66327706     0.42564718
     0.53125000     0.70327706     0.42564718
     0.53125000     0.74327706     0.42564718
     0.53125000     0.78327706     0.42564718
     0.53125000     0.82327706     0.42564718
     0.53125000     0.86327706     0.42564718