Generated by Twist2D
    1.0
     115.39498722       0.00000000       0.00000000
       0.00000000      84.17924025       0.00000000
       0.00000000       0.00000000      20.00000000
    P
    5324
Direct
     0.01428571     0.03062771     0.42564718
     0.01428571     0.08325929     0.42564718
     0.01428571     0.13589087     0.42564718
     0.01428571     0.18852245     0.42564718
     0.01428571     0.24115403     0.42564718
     0.01428571     0.29378561     0.42564718
     0.01428571     0.34641719     0.42564718
     0.01428571     0.39904876     0.42564718
     0.01428571     0.45168034     0.42564718
     0.01428571     0.50431192     0.42564718
     0.01428571     0.55694350     0.42564718
     0.01428571     0.60957508     0.42564718
     0.01428571     0.66220666     0.42564718
     0.01428571     0.71483824     0.42564718
     0.01428571     0.76746982     0.42564718
     0.01428571     0.82010140     0.42564718
     0.01428571     0.87273297     0.42564718
     0.01428571     0.92536455     0.42564718
     0.01428571     0.97799613     0.42564718
     0.04285714     0.03062771     0.42564718
     0.04285714     0.08325929     0.42564718
     0.04285714     0.13589087     0.42564718
     0.04285714     0.18852245     0.42564718
     0.04285714     0.24115403     0.42564718
     0.04285714     0.29378561     0.42564718
     0.04285714     0.34641719     0.42564718
     0.04285714     0.39904876     0.42564718
     0.04285714     0.45168034     0.42564718
     0.04285714     0.50431192     0.42564718
     0.04285714     0.55694350     0.42564718
     0.04285714     0.60957508     0.42564718
     0.04285714     0.66220666     0.42564718
     0.04285714     0.71483824     0.42564718
     0.04285714     0.76746982     0.42564718
     0.04285714     0.82010140     0.42564718
     0.04285714     0.87273297     0.42564718
     0.04285714     0.92536455     0.42564718
     0.04285714     0.97799613     0.42564718
     0.07142857     0.03062771     0.42564718
     0.07142857     0.08325929     0.42564718
     0.07142857     0.13589087     0.42564718
     0.07142857     0.18852245     0.42564718
     0.07142857     0.24115403     0.42564718
     0.07142857     0.29378561     0.42564718
     0.07142857     0.34641719     0.42564718
     0.07142857     0.39904876     0.42564718
     0.07142857     0.45168034     0.42564718
     0.07142857     0.50431192     0.42564718
     0.07142857     0.55694350     0.42564718
     0.07142857     0.60957508     0.42564718
     0.07142857     0.66220666     0.42564718
     0.07142857     0.71483824     0.42564718
     0.07142857     0.76746982     0.42564718
     0.07142857     0.82010140     0.42564718
     0.07142857     0.87273297     0.42564718
     0.07142857     0.92536455     0.42564718
     0.07142857     0.97799613     0.42564718
     0.10000000     0.03062771     0.42564718
     0.10000000     0.08325929     0.42564718
     0.10000000     0.13589087     0.42564718
     0.10000000     0.18852245     0.42564718
     0.10000000     0.24115403     0.42564718
     0.10000000     0.29378561     0.42564718
     0.10000000     0.34641719     0.42564718
     0.10000000     0.39904876     0.42564718
     0.10000000     0.45168034     0.42564718
     0.10000000     0.50431192     0.42564718
     0.10000000     0.55694350     0.42564718
     0.10000000     0.60957508     0.42564718
     0.10000000     0.66220666     0.42564718
     0.10000000     0.71483824     0.42564718
     0.10000000     0.76746982     0.42564718
     0.10000000     0.82010140     0.42564718
     0.10000000     0.87273297     0.42564718
     0.10000000     0.92536455     0.42564718
     0.10000000     0.97799613     0.42564718
     0.12857143     0.03062771     0.42564718
     0.12857143     0.08325929     0.42564718
     0.12857143     0.13589087     0.42564718
     0.12857143     0.18852245     0.42564718
     0.12857143     0.24115403     0.42564718
     0.12857143     0.29378561     0.42564718
     0.12857143     0.34641719     0.42564718
     0.12857143     0.39904876     0.42564718
     0.12857143     0.45168034     0.42564718
     0.12857143     0.50431192     0.42564718
     0.12857143     0.55694350     0.42564718
     0.12857143     0.60957508     0.42564718
     0.12857143     0.66220666     0.42564718
     0.12857143     0.71483824     0.42564718
     0.12857143     0.76746982     0.42564718
     0.12857143     0.82010140     0.42564718
     0.12857143     0.87273297     0.42564718
     0.12857143     0.92536455     0.42564718
     0.12857143     0.97799613     0.42564718
     0.15714286     0.03062771     0.42564718
     0.15714286     0.08325929     0.42564718
     0.15714286     0.13589087     0.42564718
     0.15714286     0.18852245     0.42564718
     0.15714286     0.24115403     0.42564718
     0.15714286     0.29378561     0.42564718
     0.15714286     0.34641719     0.42564718
     0.15714286     0.39904876     0.42564718
     0.15714286     0.45168034     0.42564718
     0.15714286     0.50431192     0.42564718
     0.15714286     0.55694350     0.42564718
     0.15714286     0.60957508     0.42564718
     0.15714286     0.66220666     0.42564718
     0.15714286     0.71483824     0.42564718
     0.15714286     0.76746982     0.42564718
     0.15714286     0.82010140     0.42564718
     0.15714286     0.87273297     0.42564718
     0.15714286     0.92536455     0.42564718
     0.15714286     0.97799613     0.42564718
     0.18571429     0.03062771     0.42564718
     0.18571429     0.08325929     0.42564718
     0.18571429     0.13589087     0.42564718
     0.18571429     0.18852245     0.42564718
     0.18571429     0.24115403     0.42564718
     0.18571429     0.29378561     0.42564718
     0.18571429     0.34641719     0.42564718
     0.18571429     0.39904876     0.42564718
     0.18571429     0.45168034     0.42564718
     0.18571429     0.50431192     0.42564718
     0.18571429     0.55694350     0.42564718
     0.18571429     0.60957508     0.42564718
     0.18571429     0.66220666     0.42564718
     0.18571429     0.71483824     0.42564718
     0.18571429     0.76746982     0.42564718
     0.18571429     0.82010140     0.42564718
     0.18571429     0.87273297     0.42564718
     0.18571429     0.92536455     0.42564718
     0.18571429     0.97799613     0.42564718
     0.21428571     0.03062771     0.42564718
     0.21428571     0.08325929     0.42564718
     0.21428571     0.13589087     0.42564718
     0.21428571     0.18852245     0.42564718
     0.21428571     0.24115403     0.42564718
     0.21428571     0.29378561     0.42564718
     0.21428571     0.34641719     0.42564718
     0.21428571     0.39904876     0.42564718
     0.21428571     0.45168034     0.42564718
     0.21428571     0.50431192     0.42564718
     0.21428571     0.55694350     0.42564718
     0.21428571     0.60957508     0.42564718
     0.21428571     0.66220666     0.42564718
     0.21428571     0.71483824     0.42564718
     0.21428571     0.76746982     0.42564718
     0.21428571     0.82010140     0.42564718
     0.21428571     0.87273297     0.42564718
     0.21428571     0.92536455     0.42564718
     0.21428571     0.97799613     0.42564718
     0.24285714     0.03062771     0.42564718
     0.24285714     0.08325929     0.42564718
     0.24285714     0.13589087     0.42564718
     0.24285714     0.18852245     0.42564718
     0.24285714     0.24115403     0.42564718
     0.24285714     0.29378561     0.42564718
     0.24285714     0.34641719     0.42564718
     0.24285714     0.39904876     0.42564718
     0.24285714     0.45168034     0.42564718
     0.24285714     0.50431192     0.42564718
     0.24285714     0.55694350     0.42564718
     0.24285714     0.60957508     0.42564718
     0.24285714     0.66220666     0.42564718
     0.24285714     0.71483824     0.42564718
     0.24285714     0.76746982     0.42564718
     0.24285714     0.82010140     0.42564718
     0.24285714     0.87273297     0.42564718
     0.24285714     0.92536455     0.42564718
     0.24285714     0.97799613     0.42564718
     0.27142857     0.03062771     0.42564718
     0.27142857     0.08325929     0.42564718
     0.27142857     0.13589087     0.42564718
     0.27142857     0.18852245     0.42564718
     0.27142857     0.24115403     0.42564718
     0.27142857     0.29378561     0.42564718
     0.27142857     0.34641719     0.42564718
     0.27142857     0.39904876     0.42564718
     0.27142857     0.45168034     0.42564718
     0.27142857     0.50431192     0.42564718
     0.27142857     0.55694350     0.42564718
     0.27142857     0.60957508     0.42564718
     0.27142857     0.66220666     0.42564718
     0.27142857     0.71483824     0.42564718
     0.27142857     0.76746982     0.42564718
     0.27142857     0.82010140     0.42564718
     0.27142857     0.87273297     0.42564718
     0.27142857     0.92536455     0.42564718
     0.27142857     0.97799613     0.42564718
     0.30000000     0.03062771     0.42564718
     0.30000000     0.08325929     0.42564718
     0.30000000     0.13589087     0.42564718
     0.30000000     0.18852245     0.42564718
     0.30000000     0.24115403     0.42564718
     0.30000000     0.29378561     0.42564718
     0.30000000     0.34641719     0.42564718
     0.30000000     0.39904876     0.42564718
     0.30000000     0.45168034     0.42564718
     0.30000000     0.50431192     0.42564718
     0.30000000     0.55694350     0.42564718
     0.30000000     0.60957508     0.42564718
     0.30000000     0.66220666     0.42564718
     0.30000000     0.71483824     0.42564718
     0.30000000     0.76746982     0.42564718
     0.30000000     0.82010140     0.42564718
     0.30000000     0.87273297     0.42564718
     0.30000000     0.92536455     0.42564718
     0.30000000     0.97799613     0.42564718
     0.32857143     0.03062771     0.42564718
     0.32857143     0.08325929     0.42564718
     0.32857143     0.13589087     0.42564718
     0.32857143     0.18852245     0.42564718
     0.32857143     0.24115403     0.42564718
     0.32857143     0.29378561     0.42564718
     0.32857143     0.34641719     0.42564718
     0.32857143     0.39904876     0.42564718
     0.32857143     0.45168034     0.42564718
     0.32857143     0.50431192     0.42564718
     0.32857143     0.55694350     0.42564718
     0.32857143     0.60957508     0.42564718
     0.32857143     0.66220666     0.42564718
     0.32857143     0.71483824     0.42564718
     0.32857143     0.76746982     0.42564718
     0.32857143     0.82010140     0.42564718
     0.32857143     0.87273297     0.42564718
     0.32857143     0.92536455     0.42564718
     0.32857143     0.97799613     0.42564718
     0.35714286     0.03062771     0.42564718
     0.35714286     0.08325929     0.42564718
     0.35714286     0.13589087     0.42564718
     0.35714286     0.18852245     0.42564718
     0.35714286     0.24115403     0.42564718
     0.35714286     0.29378561     0.42564718
     0.35714286     0.34641719     0.42564718
     0.35714286     0.39904876     0.42564718
     0.35714286     0.45168034     0.42564718
     0.35714286     0.50431192     0.42564718
     0.35714286     0.55694350     0.42564718
     0.35714286     0.60957508     0.42564718
     0.35714286     0.66220666     0.42564718
     0.35714286     0.71483824     0.42564718
     0.35714286     0.76746982     0.42564718
     0.35714286     0.82010140     0.42564718
     0.35714286     0.87273297     0.42564718
     0.35714286     0.92536455     0.42564718
     0.35714286     0.97799613     0.42564718
     0.38571429     0.03062771     0.42564718
     0.38571429     0.08325929     0.42564718
     0.38571429     0.13589087     0.42564718
     0.38571429     0.18852245     0.42564718
     0.38571429     0.24115403     0.42564718
     0.38571429     0.29378561     0.42564718
     0.38571429     0.34641719     0.42564718
     0.38571429     0.39904876     0.42564718
     0.38571429     0.45168034     0.42564718
     0.38571429     0.50431192     0.42564718
     0.38571429     0.55694350     0.42564718
     0.38571429     0.60957508     0.42564718
     0.38571429     0.66220666     0.42564718
     0.38571429     0.71483824     0.42564718
     0.38571429     0.76746982     0.42564718
     0.38571429     0.82010140     0.42564718
     0.38571429     0.87273297     0.42564718
     0.38571429     0.92536455     0.42564718
     0.38571429     0.97799613     0.42564718
     0.41428571     0.03062771     0.42564718
     0.41428571     0.08325929     0.42564718
     0.41428571     0.13589087     0.42564718
     0.41428571     0.18852245     0.42564718
     0.41428571     0.24115403     0.42564718
     0.41428571     0.29378561     0.42564718
     0.41428571     0.34641719     0.42564718
     0.41428571     0.39904876     0.42564718
     0.41428571     0.45168034     0.42564718
     0.41428571     0.50431192     0.42564718
     0.41428571     0.55694350     0.42564718
     0.41428571     0.60957508     0.42564718
     0.41428571     0.66220666     0.42564718
     0.41428571     0.71483824     0.42564718
     0.41428571     0.76746982     0.42564718
     0.41428571     0.82010140     0.42564718
     0.41428571     0.87273297     0.42564718
     0.41428571     0.92536455     0.42564718
     0.41428571     0.97799613     0.42564718
     0.44285714     0.03062771     0.42564718
     0.44285714     0.08325929     0.42564718
     0.44285714     0.13589087     0.42564718
     0.44285714     0.18852245     0.42564718
     0.44285714     0.24115403     0.42564718
     0.44285714     0.29378561     0.42564718
     0.44285714     0.34641719     0.42564718
     0.44285714     0.39904876     0.42564718
     0.44285714     0.45168034     0.42564718
     0.44285714     0.50431192     0.42564718
     0.44285714     0.55694350     0.42564718
     0.44285714     0.60957508     0.42564718
     0.44285714     0.66220666     0.42564718
     0.44285714     0.71483824     0.42564718
     0.44285714     0.76746982     0.42564718
     0.44285714     0.82010140     0.42564718
     0.44285714     0.87273297     0.42564718
     0.44285714     0.92536455     0.42564718
     0.44285714     0.97799613     0.42564718
     0.47142857     0.03062771     0.42564718
     0.47142857     0.08325929     0.42564718
     0.47142857     0.13589087     0.42564718
     0.47142857     0.18852245     0.42564718
     0.47142857     0.24115403     0.42564718
     0.47142857     0.29378561     0.42564718
     0.47142857     0.34641719     0.42564718
     0.47142857     0.39904876     0.42564718
     0.47142857     0.45168034     0.42564718
     0.47142857     0.50431192     0.42564718
     0.47142857     0.55694350     0.42564718
     0.47142857     0.60957508     0.42564718
     0.47142857     0.66220666     0.42564718
     0.47142857     0.71483824     0.42564718
     0.47142857     0.76746982     0.42564718
     0.47142857     0.82010140     0.42564718
     0.47142857     0.87273297     0.42564718
     0.47142857     0.92536455     0.42564718
     0.47142857     0.97799613     0.42564718
     0.50000000     0.03062771     0.42564718
     0.50000000     0.08325929     0.42564718
     0.50000000     0.13589087     0.42564718
     0.50000000     0.18852245     0.42564718
     0.50000000     0.24115403     0.42564718
     0.50000000     0.29378561     0.42564718
     0.50000000     0.34641719     0.42564718
     0.50000000     0.39904876     0.42564718
     0.50000000     0.45168034     0.42564718
     0.50000000     0.50431192     0.42564718
     0.50000000     0.55694350     0.42564718
     0.50000000     0.60957508     0.42564718
     0.50000000     0.66220666     0.42564718
     0.50000000     0.71483824     0.42564718
     0.50000000     0.76746982     0.42564718
     0.50000000     0.82010140     0.42564718
     0.50000000     0.87273297     0.42564718
     0.50000000     0.92536455     0.42564718
     0.50000000     0.97799613     0.42564718
     0.52857143     0.03062771     0.42564718
     0.52857143     0.08325929     0.42564718
     0.52857143     0.13589087     0.42564718
     0.52857143     0.18852245     0.42564718
     0.52857143     0.24115403     0.42564718
     0.52857143     0.29378561     0.42564718
     0.52857143     0.34641719     0.42564718
     0.52857143     0.39904876     0.42564718
     0.52857143     0.45168034     0.42564718
     0.52857143     0.50431192     0.42564718
     0.52857143     0.55694350     0.42564718
     0.52857143     0.60957508     0.42564718
     0.52857143     0.66220666     0.42564718
     0.52857143     0.71483824     0.42564718
     0.52857143     0.76746982     0.42564718
     0.52857143     0.82010140     0.42564718
     0.52857143     0.87273297     0.42564718
     0.52857143     0.92536455     0.42564718
     0.52857143     0.97799613     0.42564718
     0.55714286     0.03062771     0.42564718
     0.55714286     0.08325929     0.42564718
     0.55714286     0.13589087     0.42564718
     0.55714286     0.18852245     0.42564718
     0.55714286     0.24115403     0.42564718
     0.55714286     0.29378561     0.42564718
     0.55714286     0.34641719     0.42564718
     0.55714286     0.39904876     0.42564718
     0.55714286     0.45168034     0.42564718
     0.55714286     0.50431192     0.42564718
     0.55714286     0.55694350     0.42564718
     0.55714286     0.60957508     0.42564718
     0.55714286     0.66220666     0.42564718
     0.55714286     0.71483824     0.42564718
     0.55714286     0.76746982     0.42564718
     0.55714286     0.82010140     0.42564718
     0.55714286     0.87273297     0.42564718
     0.55714286     0.92536455     0.42564718
     0.55714286     0.97799613     0.42564718
     0.58571429     0.03062771     0.42564718
     0.58571429     0.08325929     0.42564718
     0.58571429     0.13589087     0.42564718
     0.58571429     0.18852245     0.42564718
     0.58571429     0.24115403     0.42564718
     0.58571429     0.29378561     0.42564718
     0.58571429     0.34641719     0.42564718
     0.58571429     0.39904876     0.42564718
     0.58571429     0.45168034     0.42564718
     0.58571429     0.50431192     0.42564718
     0.58571429     0.55694350     0.42564718
     0.58571429     0.60957508     0.42564718
     0.58571429     0.66220666     0.42564718
     0.58571429     0.71483824     0.42564718
     0.58571429     0.76746982     0.42564718
     0.58571429     0.82010140     0.42564718
     0.58571429     0.87273297     0.42564718
     0.58571429     0.92536455     0.42564718
     0.58571429     0.97799613     0.42564718
     0.61428571     0.03062771     0.42564718
     0.61428571     0.08325929     0.42564718
     0.61428571     0.13589087     0.42564718
     0.61428571     0.18852245     0.42564718
     0.61428571     0.24115403     0.42564718
     0.61428571     0.29378561     0.42564718
     0.61428571     0.34641719     0.42564718
     0.61428571     0.39904876     0.42564718
     0.61428571     0.45168034     0.42564718
     0.61428571     0.50431192     0.42564718
     0.61428571     0.55694350     0.42564718
     0.61428571     0.60957508     0.42564718
     0.61428571     0.66220666     0.42564718
     0.61428571     0.71483824     0.42564718
     0.61428571     0.76746982     0.42564718
     0.61428571     0.82010140     0.42564718
     0.61428571     0.87273297     0.42564718
     0.61428571     0.92536455     0.42564718
     0.61428571     0.97799613     0.42564718
     0.64285714     0.03062771     0.42564718
     0.64285714     0.08325929     0.42564718
     0.64285714     0.13589087     0.42564718
     0.64285714     0.18852245     0.42564718
     0.64285714     0.24115403     0.42564718
     0.64285714     0.29378561     0.42564718
     0.64285714     0.34641719     0.42564718
     0.64285714     0.39904876     0.42564718
     0.64285714     0.45168034     0.42564718
     0.64285714     0.50431192     0.42564718
     0.64285714     0.55694350     0.42564718
     0.64285714     0.60957508     0.42564718
     0.64285714     0.66220666     0.42564718
     0.64285714     0.71483824     0.42564718
     0.64285714     0.76746982     0.42564718
     0.64285714     0.82010140     0.42564718
     0.64285714     0.87273297     0.42564718
     0.64285714     0.92536455     0.42564718
     0.64285714     0.97799613     0.42564718
     0.67142857     0.03062771     0.42564718
     0.67142857     0.08325929     0.42564718
     0.67142857     0.13589087     0.42564718
     0.67142857     0.18852245     0.42564718
     0.67142857     0.24115403     0.42564718
     0.67142857     0.29378561     0.42564718
     0.67142857     0.34641719     0.42564718
     0.67142857     0.39904876     0.42564718
     0.67142857     0.45168034     0.42564718
     0.67142857     0.50431192     0.42564718
     0.67142857     0.55694350     0.42564718
     0.67142857     0.60957508     0.42564718
     0.67142857     0.66220666     0.42564718
     0.67142857     0.71483824     0.42564718
     0.67142857     0.76746982     0.42564718
     0.67142857     0.82010140     0.42564718
     0.67142857     0.87273297     0.42564718
     0.67142857     0.92536455     0.42564718
     0.67142857     0.97799613     0.42564718
     0.70000000     0.03062771     0.42564718
     0.70000000     0.08325929     0.42564718
     0.70000000     0.13589087     0.42564718
     0.70000000     0.18852245     0.42564718
     0.70000000     0.24115403     0.42564718
     0.70000000     0.29378561     0.42564718
     0.70000000     0.34641719     0.42564718
     0.70000000     0.39904876     0.42564718
     0.70000000     0.45168034     0.42564718
     0.70000000     0.50431192     0.42564718
     0.70000000     0.55694350     0.42564718
     0.70000000     0.60957508     0.42564718
     0.70000000     0.66220666     0.42564718
     0.70000000     0.71483824     0.42564718
     0.70000000     0.76746982     0.42564718
     0.70000000     0.82010140     0.42564718
     0.70000000     0.87273297     0.42564718
     0.70000000     0.92536455     0.42564718
     0.70000000     0.97799613     0.42564718
     0.72857143     0.03062771     0.42564718
     0.72857143     0.08325929     0.42564718
     0.72857143     0.13589087     0.42564718
     0.72857143     0.18852245     0.42564718
     0.72857143     0.24115403     0.42564718
     0.72857143     0.29378561     0.42564718
     0.72857143     0.34641719     0.42564718
     0.72857143     0.39904876     0.42564718
     0.72857143     0.45168034     0.42564718
     0.72857143     0.50431192     0.42564718
     0.72857143     0.55694350     0.42564718
     0.72857143     0.60957508     0.42564718
     0.72857143     0.66220666     0.42564718
     0.72857143     0.71483824     0.42564718
     0.72857143     0.76746982     0.42564718
     0.72857143     0.82010140     0.42564718
     0.72857143     0.87273297     0.42564718
     0.72857143     0.92536455     0.42564718
     0.72857143     0.97799613     0.42564718
     0.75714286     0.03062771     0.42564718
     0.75714286     0.08325929     0.42564718
     0.75714286     0.13589087     0.42564718
     0.75714286     0.18852245     0.42564718
     0.75714286     0.24115403     0.42564718
     0.75714286     0.29378561     0.42564718
     0.75714286     0.34641719     0.42564718
     0.75714286     0.39904876     0.42564718
     0.75714286     0.45168034     0.42564718
     0.75714286     0.50431192     0.42564718
     0.75714286     0.55694350     0.42564718
     0.75714286     0.60957508     0.42564718
     0.75714286     0.66220666     0.42564718
     0.75714286     0.71483824     0.42564718
     0.75714286     0.76746982     0.42564718
     0.75714286     0.82010140     0.42564718
     0.75714286     0.87273297     0.42564718
     0.75714286     0.92536455     0.42564718
     0.75714286     0.97799613     0.42564718
     0.78571429     0.03062771     0.42564718
     0.78571429     0.08325929     0.42564718
     0.78571429     0.13589087     0.42564718
     0.78571429     0.18852245     0.42564718
     0.78571429     0.24115403     0.42564718
     0.78571429     0.29378561     0.42564718
     0.78571429     0.34641719     0.42564718
     0.78571429     0.39904876     0.42564718
     0.78571429     0.45168034     0.42564718
     0.78571429     0.50431192     0.42564718
     0.78571429     0.55694350     0.42564718
     0.78571429     0.60957508     0.42564718
     0.78571429     0.66220666     0.42564718
     0.78571429     0.71483824     0.42564718
     0.78571429     0.76746982     0.42564718
     0.78571429     0.82010140     0.42564718
     0.78571429     0.87273297     0.42564718
     0.78571429     0.92536455     0.42564718
     0.78571429     0.97799613     0.42564718
     0.81428571     0.03062771     0.42564718
     0.81428571     0.08325929     0.42564718
     0.81428571     0.13589087     0.42564718
     0.81428571     0.18852245     0.42564718
     0.81428571     0.24115403     0.42564718
     0.81428571     0.29378561     0.42564718
     0.81428571     0.34641719     0.42564718
     0.81428571     0.39904876     0.42564718
     0.81428571     0.45168034     0.42564718
     0.81428571     0.50431192     0.42564718
     0.81428571     0.55694350     0.42564718
     0.81428571     0.60957508     0.42564718
     0.81428571     0.66220666     0.42564718
     0.81428571     0.71483824     0.42564718
     0.81428571     0.76746982     0.42564718
     0.81428571     0.82010140     0.42564718
     0.81428571     0.87273297     0.42564718
     0.81428571     0.92536455     0.42564718
     0.81428571     0.97799613     0.42564718
     0.84285714     0.03062771     0.42564718
     0.84285714     0.08325929     0.42564718
     0.84285714     0.13589087     0.42564718
     0.84285714     0.18852245     0.42564718
     0.84285714     0.24115403     0.42564718
     0.84285714     0.29378561     0.42564718
     0.84285714     0.34641719     0.42564718
     0.84285714     0.39904876     0.42564718
     0.84285714     0.45168034     0.42564718
     0.84285714     0.50431192     0.42564718
     0.84285714     0.55694350     0.42564718
     0.84285714     0.60957508     0.42564718
     0.84285714     0.66220666     0.42564718
     0.84285714     0.71483824     0.42564718
     0.84285714     0.76746982     0.42564718
     0.84285714     0.82010140     0.42564718
     0.84285714     0.87273297     0.42564718
     0.84285714     0.92536455     0.42564718
     0.84285714     0.97799613     0.42564718
     0.87142857     0.03062771     0.42564718
     0.87142857     0.08325929     0.42564718
     0.87142857     0.13589087     0.42564718
     0.87142857     0.18852245     0.42564718
     0.87142857     0.24115403     0.42564718
     0.87142857     0.29378561     0.42564718
     0.87142857     0.34641719     0.42564718
     0.87142857     0.39904876     0.42564718
     0.87142857     0.45168034     0.42564718
     0.87142857     0.50431192     0.42564718
     0.87142857     0.55694350     0.42564718
     0.87142857     0.60957508     0.42564718
     0.87142857     0.66220666     0.42564718
     0.87142857     0.71483824     0.42564718
     0.87142857     0.76746982     0.42564718
     0.87142857     0.82010140     0.42564718
     0.87142857     0.87273297     0.42564718
     0.87142857     0.92536455     0.42564718
     0.87142857     0.97799613     0.42564718
     0.90000000     0.03062771     0.42564718
     0.90000000     0.08325929     0.42564718
     0.90000000     0.13589087     0.42564718
     0.90000000     0.18852245     0.42564718
     0.90000000     0.24115403     0.42564718
     0.90000000     0.29378561     0.42564718
     0.90000000     0.34641719     0.42564718
     0.90000000     0.39904876     0.42564718
     0.90000000     0.45168034     0.42564718
     0.90000000     0.50431192     0.42564718
     0.90000000     0.55694350     0.42564718
     0.90000000     0.60957508     0.42564718
     0.90000000     0.66220666     0.42564718
     0.90000000     0.71483824     0.42564718
     0.90000000     0.76746982     0.42564718
     0.90000000     0.82010140     0.42564718
     0.90000000     0.87273297     0.42564718
     0.90000000     0.92536455     0.42564718
     0.90000000     0.97799613     0.42564718
     0.92857143     0.03062771     0.42564718
     0.92857143     0.08325929     0.42564718
     0.92857143     0.13589087     0.42564718
     0.92857143     0.18852245     0.42564718
     0.92857143     0.24115403     0.42564718
     0.92857143     0.29378561     0.42564718
     0.92857143     0.34641719     0.42564718
     0.92857143     0.39904876     0.42564718
     0.92857143     0.45168034     0.42564718
     0.92857143     0.50431192     0.42564718
     0.92857143     0.55694350     0.42564718
     0.92857143     0.60957508     0.42564718
     0.92857143     0.66220666     0.42564718
     0.92857143     0.71483824     0.42564718
     0.92857143     0.76746982     0.42564718
     0.92857143     0.82010140     0.42564718
     0.92857143     0.87273297     0.42564718
     0.92857143     0.92536455     0.42564718
     0.92857143     0.97799613     0.42564718
     0.95714286     0.03062771     0.42564718
     0.95714286     0.08325929     0.42564718
     0.95714286     0.13589087     0.42564718
     0.95714286     0.18852245     0.42564718
     0.95714286     0.24115403     0.42564718
     0.95714286     0.29378561     0.42564718
     0.95714286     0.34641719     0.42564718
     0.95714286     0.39904876     0.42564718
     0.95714286     0.45168034     0.42564718
     0.95714286     0.50431192     0.42564718
     0.95714286     0.55694350     0.42564718
     0.95714286     0.60957508     0.42564718
     0.95714286     0.66220666     0.42564718
     0.95714286     0.71483824     0.42564718
     0.95714286     0.76746982     0.42564718
     0.95714286     0.82010140     0.42564718
     0.95714286     0.87273297     0.42564718
     0.95714286     0.92536455     0.42564718
     0.95714286     0.97799613     0.42564718
     0.98571429     0.03062771     0.42564718