Generated by Twist2D
    1.0
     154.95898284       0.00000000       0.00000000
       0.00000000     110.76215822       0.00000000
       0.00000000       0.00000000      20.00000000
    P
    9404
Direct
     0.01063830     0.02327706     0.42564718
     0.01063830     0.06327706     0.42564718
     0.01063830     0.10327706     0.42564718
     0.01063830     0.14327706     0.42564718
     0.01063830     0.18327706     0.42564718
     0.01063830     0.22327706     0.42564718
     0.01063830     0.26327706     0.42564718
     0.01063830     0.30327706     0.42564718
     0.01063830     0.34327706     0.42564718
     0.01063830     0.38327706     0.42564718
     0.01063830     0.42327706     0.42564718
     0.01063830     0.46327706     0.42564718
     0.01063830     0.50327706     0.42564718
     0.01063830     0.54327706     0.42564718
     0.01063830     0.58327706     0.42564718
     0.01063830     0.62327706     0.42564718
     0.01063830     0.66327706     0.42564718
     0.01063830     0.70327706     0.42564718
     0.01063830     0.74327706     0.42564718
     0.01063830     0.78327706     0.42564718
     0.01063830     0.82327706     0.42564718
     0.01063830     0.86327706     0.42564718
     0.01063830     0.90327706     0.42564718
     0.01063830     0.94327706     0.42564718
     0.01063830     0.98327706     0.42564718
     0.03191489     0.02327706     0.42564718
     0.03191489     0.06327706     0.42564718
     0.03191489     0.10327706     0.42564718
     0.03191489     0.14327706     0.42564718
     0.03191489     0.18327706     0.42564718
     0.03191489     0.22327706     0.42564718
     0.03191489     0.26327706     0.42564718
     0.03191489     0.30327706     0.42564718
     0.03191489     0.34327706     0.42564718
     0.03191489     0.38327706     0.42564718
     0.03191489     0.42327706     0.42564718
     0.03191489     0.46327706     0.42564718
     0.03191489     0.50327706     0.42564718
     0.03191489     0.54327706     0.42564718
     0.03191489     0.58327706     0.42564718
     0.03191489     0.62327706     0.42564718
     0.03191489     0.66327706     0.42564718
     0.03191489     0.70327706     0.42564718
     0.03191489     0.74327706     0.42564718
     0.03191489     0.78327706     0.42564718
     0.03191489     0.82327706     0.42564718
     0.03191489     0.86327706     0.42564718
     0.03191489     0.90327706     0.42564718
     0.03191489     0.94327706     0.42564718
     0.03191489     0.98327706     0.42564718
     0.05319149     0.02327706     0.42564718
     0.05319149     0.06327706     0.42564718
     0.05319149     0.10327706     0.42564718
     0.05319149     0.14327706     0.42564718
     0.05319149     0.18327706     0.42564718
     0.05319149     0.22327706     0.42564718
     0.05319149     0.26327706     0.42564718
     0.05319149     0.30327706     0.42564718
     0.05319149     0.34327706     0.42564718
     0.05319149     0.38327706     0.42564718
     0.05319149     0.42327706     0.42564718
     0.05319149     0.46327706     0.42564718
     0.05319149     0.50327706     0.42564718
     0.05319149     0.54327706     0.42564718
     0.05319149     0.58327706     0.42564718
     0.05319149     0.62327706     0.42564718
     0.05319149     0.66327706     0.42564718
     0.05319149     0.70327706     0.42564718
     0.05319149     0.74327706     0.42564718
     0.05319149     0.78327706     0.42564718
     0.05319149     0.82327706     0.42564718
     0.05319149     0.86327706     0.42564718
     0.05319149     0.90327706     0.42564718
     0.05319149     0.94327706     0.42564718
     0.05319149     0.98327706     0.42564718
     0.07446809     0.02327706     0.42564718
     0.07446809     0.06327706     0.42564718
     0.07446809     0.10327706     0.42564718
     0.07446809     0.14327706     0.42564718
     0.07446809     0.18327706     0.42564718
     0.07446809     0.22327706     0.42564718
     0.07446809     0.26327706     0.42564718
     0.07446809     0.30327706     0.42564718
     0.07446809     0.34327706     0.42564718
     0.07446809     0.38327706     0.42564718
     0.07446809     0.42327706     0.42564718
     0.07446809     0.46327706     0.42564718
     0.07446809     0.50327706     0.42564718
     0.07446809     0.54327706     0.42564718
     0.07446809     0.58327706     0.42564718
     0.07446809     0.62327706     0.42564718
     0.07446809     0.66327706     0.42564718
     0.07446809     0.70327706     0.42564718
     0.07446809     0.74327706     0.42564718
     0.07446809     0.78327706     0.42564718
     0.07446809     0.82327706     0.42564718
     0.07446809     0.86327706     0.42564718
     0.07446809     0.90327706     0.42564718
     0.07446809     0.94327706     0.42564718
     0.07446809     0.98327706     0.42564718
     0.09574468     0.02327706     0.42564718
     0.09574468     0.06327706     0.42564718
     0.09574468     0.10327706     0.42564718
     0.09574468     0.14327706     0.42564718
     0.09574468     0.18327706     0.42564718
     0.09574468     0.22327706     0.42564718
     0.09574468     0.26327706     0.42564718
     0.09574468     0.30327706     0.42564718
     0.09574468     0.34327706     0.42564718
     0.09574468     0.38327706     0.42564718
     0.09574468     0.42327706     0.42564718
     0.09574468     0.46327706     0.42564718
     0.09574468     0.50327706     0.42564718
     0.09574468     0.54327706     0.42564718
     0.09574468     0.58327706     0.42564718
     0.09574468     0.62327706     0.42564718
     0.09574468     0.66327706     0.42564718
     0.09574468     0.70327706     0.42564718
     0.09574468     0.74327706     0.42564718
     0.09574468     0.78327706     0.42564718
     0.09574468     0.82327706     0.42564718
     0.09574468     0.86327706     0.42564718
     0.09574468     0.90327706     0.42564718
     0.09574468     0.94327706     0.42564718
     0.09574468     0.98327706     0.42564718
     0.11702128     0.02327706     0.42564718
     0.11702128     0.06327706     0.42564718
     0.11702128     0.10327706     0.42564718
     0.11702128     0.14327706     0.42564718
     0.11702128     0.18327706     0.42564718
     0.11702128     0.22327706     0.42564718
     0.11702128     0.26327706     0.42564718
     0.11702128     0.30327706     0.42564718
     0.11702128     0.34327706     0.42564718
     0.11702128     0.38327706     0.42564718
     0.11702128     0.42327706     0.42564718
     0.11702128     0.46327706     0.42564718
     0.11702128     0.50327706     0.42564718
     0.11702128     0.54327706     0.42564718
     0.11702128     0.58327706     0.42564718
     0.11702128     0.62327706     0.42564718
     0.11702128     0.66327706     0.42564718
     0.11702128     0.70327706     0.42564718
     0.11702128     0.74327706     0.42564718
     0.11702128     0.78327706     0.42564718
     0.11702128     0.82327706     0.42564718
     0.11702128     0.86327706     0.42564718
     0.11702128     0.90327706     0.42564718
     0.11702128     0.94327706     0.42564718
     0.11702128     0.98327706     0.42564718
     0.13829787     0.02327706     0.42564718
     0.13829787     0.06327706     0.42564718
     0.13829787     0.10327706     0.42564718
     0.13829787     0.14327706     0.42564718
     0.13829787     0.18327706     0.42564718
     0.13829787     0.22327706     0.42564718
     0.13829787     0.26327706     0.42564718
     0.13829787     0.30327706     0.42564718
     0.13829787     0.34327706     0.42564718
     0.13829787     0.38327706     0.42564718
     0.13829787     0.42327706     0.42564718
     0.13829787     0.46327706     0.42564718
     0.13829787     0.50327706     0.42564718
     0.13829787     0.54327706     0.42564718
     0.13829787     0.58327706     0.42564718
     0.13829787     0.62327706     0.42564718
     0.13829787     0.66327706     0.42564718
     0.13829787     0.70327706     0.42564718
     0.13829787     0.74327706     0.42564718
     0.13829787     0.78327706     0.42564718
     0.13829787     0.82327706     0.42564718
     0.13829787     0.86327706     0.42564718
     0.13829787     0.90327706     0.42564718
     0.13829787     0.94327706     0.42564718
     0.13829787     0.98327706     0.42564718
     0.15957447     0.02327706     0.42564718
     0.15957447     0.06327706     0.42564718
     0.15957447     0.10327706     0.42564718
     0.15957447     0.14327706     0.42564718
     0.15957447     0.18327706     0.42564718
     0.15957447     0.22327706     0.42564718
     0.15957447     0.26327706     0.42564718
     0.15957447     0.30327706     0.42564718
     0.15957447     0.34327706     0.42564718
     0.15957447     0.38327706     0.42564718
     0.15957447     0.42327706     0.42564718
     0.15957447     0.46327706     0.42564718
     0.15957447     0.50327706     0.42564718
     0.15957447     0.54327706     0.42564718
     0.15957447     0.58327706     0.42564718
     0.15957447     0.62327706     0.42564718
     0.15957447     0.66327706     0.42564718
     0.15957447     0.70327706     0.42564718
     0.15957447     0.74327706     0.42564718
     0.15957447     0.78327706     0.42564718
     0.15957447     0.82327706     0.42564718
     0.15957447     0.86327706     0.42564718
     0.15957447     0.90327706     0.42564718
     0.15957447     0.94327706     0.42564718
     0.15957447     0.98327706     0.42564718
     0.18085106     0.02327706     0.42564718
     0.18085106     0.06327706     0.42564718
     0.18085106     0.10327706     0.42564718
     0.18085106     0.14327706     0.42564718
     0.18085106     0.18327706     0.42564718
     0.18085106     0.22327706     0.42564718
     0.18085106     0.26327706     0.42564718
     0.18085106     0.30327706     0.42564718
     0.18085106     0.34327706     0.42564718
     0.18085106     0.38327706     0.42564718
     0.18085106     0.42327706     0.42564718
     0.18085106     0.46327706     0.42564718
     0.18085106     0.50327706     0.42564718
     0.18085106     0.54327706     0.42564718
     0.18085106     0.58327706     0.42564718
     0.18085106     0.62327706     0.42564718
     0.18085106     0.66327706     0.42564718
     0.18085106     0.70327706     0.42564718
     0.18085106     0.74327706     0.42564718
     0.18085106     0.78327706     0.42564718
     0.18085106     0.82327706     0.42564718
     0.18085106     0.86327706     0.42564718
     0.18085106     0.90327706     0.42564718
     0.18085106     0.94327706     0.42564718
     0.18085106     0.98327706     0.42564718
     0.20212766     0.02327706     0.42564718
     0.20212766     0.06327706     0.42564718
     0.20212766     0.10327706     0.42564718
     0.20212766     0.14327706     0.42564718
     0.20212766     0.18327706     0.42564718
     0.20212766     0.22327706     0.42564718
     0.20212766     0.26327706     0.42564718
     0.20212766     0.30327706     0.42564718
     0.20212766     0.34327706     0.42564718
     0.20212766     0.38327706     0.42564718
     0.20212766     0.42327706     0.42564718
     0.20212766     0.46327706     0.42564718
     0.20212766     0.50327706     0.42564718
     0.20212766     0.54327706     0.42564718
     0.20212766     0.58327706     0.42564718
     0.20212766     0.62327706     0.42564718
     0.20212766     0.66327706     0.42564718
     0.20212766     0.70327706     0.42564718
     0.20212766     0.74327706     0.42564718
     0.20212766     0.78327706     0.42564718
     0.20212766     0.82327706     0.42564718
     0.20212766     0.86327706     0.42564718
     0.20212766     0.90327706     0.42564718
     0.20212766     0.94327706     0.42564718
     0.20212766     0.98327706     0.42564718
     0.22340426     0.02327706     0.42564718
     0.22340426     0.06327706     0.42564718
     0.22340426     0.10327706     0.42564718
     0.22340426     0.14327706     0.42564718
     0.22340426     0.18327706     0.42564718
     0.22340426     0.22327706     0.42564718
     0.22340426     0.26327706     0.42564718
     0.22340426     0.30327706     0.42564718
     0.22340426     0.34327706     0.42564718
     0.22340426     0.38327706     0.42564718
     0.22340426     0.42327706     0.42564718
     0.22340426     0.46327706     0.42564718
     0.22340426     0.50327706     0.42564718
     0.22340426     0.54327706     0.42564718
     0.22340426     0.58327706     0.42564718
     0.22340426     0.62327706     0.42564718
     0.22340426     0.66327706     0.42564718
     0.22340426     0.70327706     0.42564718
     0.22340426     0.74327706     0.42564718
     0.22340426     0.78327706     0.42564718
     0.22340426     0.82327706     0.42564718
     0.22340426     0.86327706     0.42564718
     0.22340426     0.90327706     0.42564718
     0.22340426     0.94327706     0.42564718
     0.22340426     0.98327706     0.42564718
     0.24468085     0.02327706     0.42564718
     0.24468085     0.06327706     0.42564718
     0.24468085     0.10327706     0.42564718
     0.24468085     0.14327706     0.42564718
     0.24468085     0.18327706     0.42564718
     0.24468085     0.22327706     0.42564718
     0.24468085     0.26327706     0.42564718
     0.24468085     0.30327706     0.42564718
     0.24468085     0.34327706     0.42564718
     0.24468085     0.38327706     0.42564718
     0.24468085     0.42327706     0.42564718
     0.24468085     0.46327706     0.42564718
     0.24468085     0.50327706     0.42564718
     0.24468085     0.54327706     0.42564718
     0.24468085     0.58327706     0.42564718
     0.24468085     0.62327706     0.42564718
     0.24468085     0.66327706     0.42564718
     0.24468085     0.70327706     0.42564718
     0.24468085     0.74327706     0.42564718
     0.24468085     0.78327706     0.42564718
     0.24468085     0.82327706     0.42564718
     0.24468085     0.86327706     0.42564718
     0.24468085     0.90327706     0.42564718
     0.24468085     0.94327706     0.42564718
     0.24468085     0.98327706     0.42564718
     0.26595745     0.02327706     0.42564718
     0.26595745     0.06327706     0.42564718
     0.26595745     0.10327706     0.42564718
     0.26595745     0.14327706     0.42564718
     0.26595745     0.18327706     0.42564718
     0.26595745     0.22327706     0.42564718
     0.26595745     0.26327706     0.42564718
     0.26595745     0.30327706     0.42564718
     0.26595745     0.34327706     0.42564718
     0.26595745     0.38327706     0.42564718
     0.26595745     0.42327706     0.42564718
     0.26595745     0.46327706     0.42564718
     0.26595745     0.50327706     0.42564718
     0.26595745     0.54327706     0.42564718
     0.26595745     0.58327706     0.42564718
     0.26595745     0.62327706     0.42564718
     0.26595745     0.66327706     0.42564718
     0.26595745     0.70327706     0.42564718
     0.26595745     0.74327706     0.42564718
     0.26595745     0.78327706     0.42564718
     0.26595745     0.82327706     0.42564718
     0.26595745     0.86327706     0.42564718
     0.26595745     0.90327706     0.42564718
     0.26595745     0.94327706     0.42564718
     0.26595745     0.98327706     0.42564718
     0.28723404     0.02327706     0.42564718
     0.28723404     0.06327706     0.42564718
     0.28723404     0.10327706     0.42564718
     0.28723404     0.14327706     0.42564718
     0.28723404     0.18327706     0.42564718
     0.28723404     0.22327706     0.42564718
     0.28723404     0.26327706     0.42564718
     0.28723404     0.30327706     0.42564718
     0.28723404     0.34327706     0.42564718
     0.28723404     0.38327706     0.42564718
     0.28723404     0.42327706     0.42564718
     0.28723404     0.46327706     0.42564718
     0.28723404     0.50327706     0.42564718
     0.28723404     0.54327706     0.42564718
     0.28723404     0.58327706     0.42564718
     0.28723404     0.62327706     0.42564718
     0.28723404     0.66327706     0.42564718
     0.28723404     0.70327706     0.42564718
     0.28723404     0.74327706     0.42564718
     0.28723404     0.78327706     0.42564718
     0.28723404     0.82327706     0.42564718
     0.28723404     0.86327706     0.42564718
     0.28723404     0.90327706     0.42564718
     0.28723404     0.94327706     0.42564718
     0.28723404     0.98327706     0.42564718
     0.30851064     0.02327706     0.42564718
     0.30851064     0.06327706     0.42564718
     0.30851064     0.10327706     0.42564718
     0.30851064     0.14327706     0.42564718
     0.30851064     0.18327706     0.42564718
     0.30851064     0.22327706     0.42564718
     0.30851064     0.26327706     0.42564718
     0.30851064     0.30327706     0.42564718
     0.30851064     0.34327706     0.42564718
     0.30851064     0.38327706     0.42564718
     0.30851064     0.42327706     0.42564718
     0.30851064     0.46327706     0.42564718
     0.30851064     0.50327706     0.42564718
     0.30851064     0.54327706     0.42564718
     0.30851064     0.58327706     0.42564718
     0.30851064     0.62327706     0.42564718
     0.30851064     0.66327706     0.42564718
     0.30851064     0.70327706     0.42564718
     0.30851064     0.74327706     0.42564718
     0.30851064     0.78327706     0.42564718
     0.30851064     0.82327706     0.42564718
     0.30851064     0.86327706     0.42564718
     0.30851064     0.90327706     0.42564718
     0.30851064     0.94327706     0.42564718
     0.30851064     0.98327706     0.42564718
     0.32978723     0.02327706     0.42564718
     0.32978723     0.06327706     0.42564718
     0.32978723     0.10327706     0.42564718
     0.32978723     0.14327706     0.42564718
     0.32978723     0.18327706     0.42564718
     0.32978723     0.22327706     0.42564718
     0.32978723     0.26327706     0.42564718
     0.32978723     0.30327706     0.42564718
     0.32978723     0.34327706     0.42564718
     0.32978723     0.38327706     0.42564718
     0.32978723     0.42327706     0.42564718
     0.32978723     0.46327706     0.42564718
     0.32978723     0.50327706     0.42564718
     0.32978723     0.54327706     0.42564718
     0.32978723     0.58327706     0.42564718
     0.32978723     0.62327706     0.42564718
     0.32978723     0.66327706     0.42564718
     0.32978723     0.70327706     0.42564718
     0.32978723     0.74327706     0.42564718
     0.32978723     0.78327706     0.42564718
     0.32978723     0.82327706     0.42564718
     0.32978723     0.86327706     0.42564718
     0.32978723     0.90327706     0.42564718
     0.32978723     0.94327706     0.42564718
     0.32978723     0.98327706     0.42564718
     0.35106383     0.02327706     0.42564718
     0.35106383     0.06327706     0.42564718
     0.35106383     0.10327706     0.42564718
     0.35106383     0.14327706     0.42564718
     0.35106383     0.18327706     0.42564718
     0.35106383     0.22327706     0.42564718
     0.35106383     0.26327706     0.42564718
     0.35106383     0.30327706     0.42564718
     0.35106383     0.34327706     0.42564718
     0.35106383     0.38327706     0.42564718
     0.35106383     0.42327706     0.42564718
     0.35106383     0.46327706     0.42564718
     0.35106383     0.50327706     0.42564718
     0.35106383     0.54327706     0.42564718
     0.35106383     0.58327706     0.42564718
     0.35106383     0.62327706     0.42564718
     0.35106383     0.66327706     0.42564718
     0.35106383     0.70327706     0.42564718
     0.35106383     0.74327706     0.42564718
     0.35106383     0.78327706     0.42564718
     0.35106383     0.82327706     0.42564718
     0.35106383     0.86327706     0.42564718
     0.35106383     0.90327706     0.42564718
     0.35106383     0.94327706     0.42564718
     0.35106383     0.98327706     0.42564718
     0.37234043     0.02327706     0.42564718
     0.37234043     0.06327706     0.42564718
     0.37234043     0.10327706     0.42564718
     0.37234043     0.14327706     0.42564718
     0.37234043     0.18327706     0.42564718
     0.37234043     0.22327706     0.42564718
     0.37234043     0.26327706     0.42564718
     0.37234043     0.30327706     0.42564718
     0.37234043     0.34327706     0.42564718
     0.37234043     0.38327706     0.42564718
     0.37234043     0.42327706     0.42564718
     0.37234043     0.46327706     0.42564718
     0.37234043     0.50327706     0.42564718
     0.37234043     0.54327706     0.42564718
     0.37234043     0.58327706     0.42564718
     0.37234043     0.62327706     0.42564718
     0.37234043     0.66327706     0.42564718
     0.37234043     0.70327706     0.42564718
     0.37234043     0.74327706     0.42564718
     0.37234043     0.78327706     0.42564718
     0.37234043     0.82327706     0.42564718
     0.37234043     0.86327706     0.42564718
     0.37234043     0.90327706     0.42564718
     0.37234043     0.94327706     0.42564718
     0.37234043     0.98327706     0.42564718
     0.39361702     0.02327706     0.42564718
     0.39361702     0.06327706     0.42564718
     0.39361702     0.10327706     0.42564718
     0.39361702     0.14327706     0.42564718
     0.39361702     0.18327706     0.42564718
     0.39361702     0.22327706     0.42564718
     0.39361702     0.26327706     0.42564718
     0.39361702     0.30327706     0.42564718
     0.39361702     0.34327706     0.42564718
     0.39361702     0.38327706     0.42564718
     0.39361702     0.42327706     0.42564718
     0.39361702     0.46327706     0.42564718
     0.39361702     0.50327706     0.42564718
     0.39361702     0.54327706     0.42564718
     0.39361702     0.58327706     0.42564718
     0.39361702     0.62327706     0.42564718
     0.39361702     0.66327706     0.42564718
     0.39361702     0.70327706     0.42564718
     0.39361702     0.74327706     0.42564718
     0.39361702     0.78327706     0.42564718
     0.39361702     0.82327706     0.42564718
     0.39361702     0.86327706     0.42564718
     0.39361702     0.90327706     0.42564718
     0.39361702     0.94327706     0.42564718
     0.39361702     0.98327706     0.42564718
     0.41489362     0.02327706     0.42564718
     0.41489362     0.06327706     0.42564718
     0.41489362     0.10327706     0.42564718
     0.41489362     0.14327706     0.42564718
     0.41489362     0.18327706     0.42564718
     0.41489362     0.22327706     0.42564718
     0.41489362     0.26327706     0.42564718
     0.41489362     0.30327706     0.42564718
     0.41489362     0.34327706     0.42564718
     0.41489362     0.38327706     0.42564718
     0.41489362     0.42327706     0.42564718
     0.41489362     0.46327706     0.42564718
     0.41489362     0.50327706     0.42564718
     0.41489362     0.54327706     0.42564718
     0.41489362     0.58327706     0.42564718
     0.41489362     0.62327706     0.42564718
     0.41489362     0.66327706     0.42564718
     0.41489362     0.70327706     0.42564718
     0.41489362     0.74327706     0.42564718
     0.41489362     0.78327706     0.42564718
     0.41489362     0.82327706     0.42564718
     0.41489362     0.86327706     0.42564718
     0.41489362     0.90327706     0.42564718
     0.41489362     0.94327706     0.42564718
     0.41489362     0.98327706     0.42564718
     0.43617021     0.02327706     0.42564718
     0.43617021     0.06327706     0.42564718
     0.43617021     0.10327706     0.42564718
     0.43617021     0.14327706     0.42564718
     0.43617021     0.18327706     0.42564718
     0.43617021     0.22327706     0.42564718
     0.43617021     0.26327706     0.42564718
     0.43617021     0.30327706     0.42564718
     0.43617021     0.34327706     0.42564718
     0.43617021     0.38327706     0.42564718
     0.43617021     0.42327706     0.42564718
     0.43617021     0.46327706     0.42564718
     0.43617021     0.50327706     0.42564718
     0.43617021     0.54327706     0.42564718
     0.43617021     0.58327706     0.42564718
     0.43617021     0.62327706     0.42564718
     0.43617021     0.66327706     0.42564718
     0.43617021     0.70327706     0.42564718
     0.43617021     0.74327706     0.42564718
     0.43617021     0.78327706     0.42564718
     0.43617021     0.82327706     0.42564718
     0.43617021     0.86327706     0.42564718
     0.43617021     0.90327706     0.42564718
     0.43617021     0.94327706     0.42564718
     0.43617021     0.98327706     0.42564718
     0.45744681     0.02327706     0.42564718
     0.45744681     0.06327706     0.42564718
     0.45744681     0.10327706     0.42564718
     0.45744681     0.14327706     0.42564718
     0.45744681     0.18327706     0.42564718
     0.45744681     0.22327706     0.42564718
     0.45744681     0.26327706     0.42564718
     0.45744681     0.30327706     0.42564718
     0.45744681     0.34327706     0.42564718
     0.45744681     0.38327706     0.42564718
     0.45744681     0.42327706     0.42564718
     0.45744681     0.46327706     0.42564718
     0.45744681     0.50327706     0.42564718
     0.45744681     0.54327706     0.42564718
     0.45744681     0.58327706     0.42564718
     0.45744681     0.62327706     0.42564718
     0.45744681     0.66327706     0.42564718
     0.45744681     0.70327706     0.42564718
     0.45744681     0.74327706     0.42564718
     0.45744681     0.78327706     0.42564718
     0.45744681     0.82327706     0.42564718
     0.45744681     0.86327706     0.42564718
     0.45744681     0.90327706     0.42564718
     0.45744681     0.94327706     0.42564718
     0.45744681     0.98327706     0.42564718
     0.47872340     0.02327706     0.42564718
     0.47872340     0.06327706     0.42564718
     0.47872340     0.10327706     0.42564718
     0.47872340     0.14327706     0.42564718
     0.47872340     0.18327706     0.42564718
     0.47872340     0.22327706     0.42564718
     0.47872340     0.26327706     0.42564718
     0.47872340     0.30327706     0.42564718
     0.47872340     0.34327706     0.42564718
     0.47872340     0.38327706     0.42564718
     0.47872340     0.42327706     0.42564718
     0.47872340     0.46327706     0.42564718
     0.47872340     0.50327706     0.42564718
     0.47872340     0.54327706     0.42564718
     0.47872340     0.58327706     0.42564718
     0.47872340     0.62327706     0.42564718
     0.47872340     0.66327706     0.42564718
     0.47872340     0.70327706     0.42564718
     0.47872340     0.74327706     0.42564718
     0.47872340     0.78327706     0.42564718
     0.47872340     0.82327706     0.42564718
     0.47872340     0.86327706     0.42564718
     0.47872340     0.90327706     0.42564718
     0.47872340     0.94327706     0.42564718
     0.47872340     0.98327706     0.42564718
     0.50000000     0.02327706     0.42564718
     0.50000000     0.06327706     0.42564718
     0.50000000     0.10327706     0.42564718
     0.50000000     0.14327706     0.42564718
     0.50000000     0.18327706     0.42564718
     0.50000000     0.22327706     0.42564718
     0.50000000     0.26327706     0.42564718
     0.50000000     0.30327706     0.42564718
     0.50000000     0.34327706     0.42564718
     0.50000000     0.38327706     0.42564718
     0.50000000     0.42327706     0.42564718
     0.50000000     0.46327706     0.42564718
     0.50000000     0.50327706     0.42564718
     0.50000000     0.54327706     0.42564718
     0.50000000     0.58327706     0.42564718
     0.50000000     0.62327706     0.42564718
     0.50000000     0.66327706     0.42564718
     0.50000000     0.70327706     0.42564718
     0.50000000     0.74327706     0.42564718
     0.50000000     0.78327706     0.42564718
     0.50000000     0.82327706     0.42564718
     0.50000000     0.86327706     0.42564718
     0.50000000     0.90327706     0.42564718
     0.50000000     0.94327706     0.42564718
     0.50000000     0.98327706     0.42564718
     0.52127660     0.02327706     0.42564718
     0.52127660     0.06327706     0.42564718
     0.52127660     0.10327706     0.42564718
     0.52127660     0.14327706     0.42564718
     0.52127660     0.18327706     0.42564718
     0.52127660     0.22327706     0.42564718
     0.52127660     0.26327706     0.42564718
     0.52127660     0.30327706     0.42564718
     0.52127660     0.34327706     0.42564718
     0.52127660     0.38327706     0.42564718
     0.52127660     0.42327706     0.42564718
     0.52127660     0.46327706     0.42564718
     0.52127660     0.50327706     0.42564718
     0.52127660     0.54327706     0.42564718
     0.52127660     0.58327706     0.42564718
     0.52127660     0.62327706     0.42564718
     0.52127660     0.66327706     0.42564718
     0.52127660     0.70327706     0.42564718
     0.52127660     0.74327706     0.42564718
     0.52127660     0.78327706     0.42564718
     0.52127660     0.82327706     0.42564718
     0.52127660     0.86327706     0.42564718
     0.52127660     0.90327706     0.42564718
     0.52127660     0.94327706     0.42564718
     0.52127660     0.98327706     0.42564718
     0.54255319     0.02327706     0.42564718
     0.54255319     0.06327706     0.42564718
     0.54255319     0.10327706     0.42564718
     0.54255319     0.14327706     0.42564718
     0.54255319     0.18327706     0.42564718
     0.54255319     0.22327706     0.42564718
     0.54255319     0.26327706     0.42564718
     0.54255319     0.30327706     0.42564718
     0.54255319     0.34327706     0.42564718
     0.54255319     0.38327706     0.42564718
     0.54255319     0.42327706     0.42564718
     0.54255319     0.46327706     0.42564718
     0.54255319     0.50327706     0.42564718
     0.54255319     0.54327706     0.42564718
     0.54255319     0.58327706     0.42564718
     0.54255319     0.62327706     0.42564718
     0.54255319     0.66327706     0.42564718
     0.54255319     0.70327706     0.42564718
     0.54255319     0.74327706     0.42564718
     0.54255319     0.78327706     0.42564718
     0.54255319     0.82327706     0.42564718
     0.54255319     0.86327706     0.42564718