Generated by Twist2D
    1.0
     138.47398467       0.00000000       0.00000000
       0.00000000      97.47069923       0.00000000
       0.00000000       0.00000000      20.00000000
    P
    7396
Direct
     0.01190476     0.02645121     0.42564718
     0.01190476     0.07190575     0.42564718
     0.01190476     0.11736030     0.42564718
     0.01190476     0.16281484     0.42564718
     0.01190476     0.20826939     0.42564718
     0.01190476     0.25372393     0.42564718
     0.01190476     0.29917848     0.42564718
     0.01190476     0.34463302     0.42564718
     0.01190476     0.39008757     0.42564718
     0.01190476     0.43554211     0.42564718
     0.01190476     0.48099666     0.42564718
     0.01190476     0.52645121     0.42564718
     0.01190476     0.57190575     0.42564718
     0.01190476     0.61736030     0.42564718
     0.01190476     0.66281484     0.42564718
     0.01190476     0.70826939     0.42564718
     0.01190476     0.75372393     0.42564718
     0.01190476     0.79917848     0.42564718
     0.01190476     0.84463302     0.42564718
     0.01190476     0.89008757     0.42564718
     0.01190476     0.93554211     0.42564718
     0.01190476     0.98099666     0.42564718
     0.03571429     0.02645121     0.42564718
     0.03571429     0.07190575     0.42564718
     0.03571429     0.11736030     0.42564718
     0.03571429     0.16281484     0.42564718
     0.03571429     0.20826939     0.42564718
     0.03571429     0.25372393     0.42564718
     0.03571429     0.29917848     0.42564718
     0.03571429     0.34463302     0.42564718
     0.03571429     0.39008757     0.42564718
     0.03571429     0.43554211     0.42564718
     0.03571429     0.48099666     0.42564718
     0.03571429     0.52645121     0.42564718
     0.03571429     0.57190575     0.42564718
     0.03571429     0.61736030     0.42564718
     0.03571429     0.66281484     0.42564718
     0.03571429     0.70826939     0.42564718
     0.03571429     0.75372393     0.42564718
     0.03571429     0.79917848     0.42564718
     0.03571429     0.84463302     0.42564718
     0.03571429     0.89008757     0.42564718
     0.03571429     0.93554211     0.42564718
     0.03571429     0.98099666     0.42564718
     0.05952381     0.02645121     0.42564718
     0.05952381     0.07190575     0.42564718
     0.05952381     0.11736030     0.42564718
     0.05952381     0.16281484     0.42564718
     0.05952381     0.20826939     0.42564718
     0.05952381     0.25372393     0.42564718
     0.05952381     0.29917848     0.42564718
     0.05952381     0.34463302     0.42564718
     0.05952381     0.39008757     0.42564718
     0.05952381     0.43554211     0.42564718
     0.05952381     0.48099666     0.42564718
     0.05952381     0.52645121     0.42564718
     0.05952381     0.57190575     0.42564718
     0.05952381     0.61736030     0.42564718
     0.05952381     0.66281484     0.42564718
     0.05952381     0.70826939     0.42564718
     0.05952381     0.75372393     0.42564718
     0.05952381     0.79917848     0.42564718
     0.05952381     0.84463302     0.42564718
     0.05952381     0.89008757     0.42564718
     0.05952381     0.93554211     0.42564718
     0.05952381     0.98099666     0.42564718
     0.08333333     0.02645121     0.42564718
     0.08333333     0.07190575     0.42564718
     0.08333333     0.11736030     0.42564718
     0.08333333     0.16281484     0.42564718
     0.08333333     0.20826939     0.42564718
     0.08333333     0.25372393     0.42564718
     0.08333333     0.29917848     0.42564718
     0.08333333     0.34463302     0.42564718
     0.08333333     0.39008757     0.42564718
     0.08333333     0.43554211     0.42564718
     0.08333333     0.48099666     0.42564718
     0.08333333     0.52645121     0.42564718
     0.08333333     0.57190575     0.42564718
     0.08333333     0.61736030     0.42564718
     0.08333333     0.66281484     0.42564718
     0.08333333     0.70826939     0.42564718
     0.08333333     0.75372393     0.42564718
     0.08333333     0.79917848     0.42564718
     0.08333333     0.84463302     0.42564718
     0.08333333     0.89008757     0.42564718
     0.08333333     0.93554211     0.42564718
     0.08333333     0.98099666     0.42564718
     0.10714286     0.02645121     0.42564718
     0.10714286     0.07190575     0.42564718
     0.10714286     0.11736030     0.42564718
     0.10714286     0.16281484     0.42564718
     0.10714286     0.20826939     0.42564718
     0.10714286     0.25372393     0.42564718
     0.10714286     0.29917848     0.42564718
     0.10714286     0.34463302     0.42564718
     0.10714286     0.39008757     0.42564718
     0.10714286     0.43554211     0.42564718
     0.10714286     0.48099666     0.42564718
     0.10714286     0.52645121     0.42564718
     0.10714286     0.57190575     0.42564718
     0.10714286     0.61736030     0.42564718
     0.10714286     0.66281484     0.42564718
     0.10714286     0.70826939     0.42564718
     0.10714286     0.75372393     0.42564718
     0.10714286     0.79917848     0.42564718
     0.10714286     0.84463302     0.42564718
     0.10714286     0.89008757     0.42564718
     0.10714286     0.93554211     0.42564718
     0.10714286     0.98099666     0.42564718
     0.13095238     0.02645121     0.42564718
     0.13095238     0.07190575     0.42564718
     0.13095238     0.11736030     0.42564718
     0.13095238     0.16281484     0.42564718
     0.13095238     0.20826939     0.42564718
     0.13095238     0.25372393     0.42564718
     0.13095238     0.29917848     0.42564718
     0.13095238     0.34463302     0.42564718
     0.13095238     0.39008757     0.42564718
     0.13095238     0.43554211     0.42564718
     0.13095238     0.48099666     0.42564718
     0.13095238     0.52645121     0.42564718
     0.13095238     0.57190575     0.42564718
     0.13095238     0.61736030     0.42564718
     0.13095238     0.66281484     0.42564718
     0.13095238     0.70826939     0.42564718
     0.13095238     0.75372393     0.42564718
     0.13095238     0.79917848     0.42564718
     0.13095238     0.84463302     0.42564718
     0.13095238     0.89008757     0.42564718
     0.13095238     0.93554211     0.42564718
     0.13095238     0.98099666     0.42564718
     0.15476190     0.02645121     0.42564718
     0.15476190     0.07190575     0.42564718
     0.15476190     0.11736030     0.42564718
     0.15476190     0.16281484     0.42564718
     0.15476190     0.20826939     0.42564718
     0.15476190     0.25372393     0.42564718
     0.15476190     0.29917848     0.42564718
     0.15476190     0.34463302     0.42564718
     0.15476190     0.39008757     0.42564718
     0.15476190     0.43554211     0.42564718
     0.15476190     0.48099666     0.42564718
     0.15476190     0.52645121     0.42564718
     0.15476190     0.57190575     0.42564718
     0.15476190     0.61736030     0.42564718
     0.15476190     0.66281484     0.42564718
     0.15476190     0.70826939     0.42564718
     0.15476190     0.75372393     0.42564718
     0.15476190     0.79917848     0.42564718
     0.15476190     0.84463302     0.42564718
     0.15476190     0.89008757     0.42564718
     0.15476190     0.93554211     0.42564718
     0.15476190     0.98099666     0.42564718
     0.17857143     0.02645121     0.42564718
     0.17857143     0.07190575     0.42564718
     0.17857143     0.11736030     0.42564718
     0.17857143     0.16281484     0.42564718
     0.17857143     0.20826939     0.42564718
     0.17857143     0.25372393     0.42564718
     0.17857143     0.29917848     0.42564718
     0.17857143     0.34463302     0.42564718
     0.17857143     0.39008757     0.42564718
     0.17857143     0.43554211     0.42564718
     0.17857143     0.48099666     0.42564718
     0.17857143     0.52645121     0.42564718
     0.17857143     0.57190575     0.42564718
     0.17857143     0.61736030     0.42564718
     0.17857143     0.66281484     0.42564718
     0.17857143     0.70826939     0.42564718
     0.17857143     0.75372393     0.42564718
     0.17857143     0.79917848     0.42564718
     0.17857143     0.84463302     0.42564718
     0.17857143     0.89008757     0.42564718
     0.17857143     0.93554211     0.42564718
     0.17857143     0.98099666     0.42564718
     0.20238095     0.02645121     0.42564718
     0.20238095     0.07190575     0.42564718
     0.20238095     0.11736030     0.42564718
     0.20238095     0.16281484     0.42564718
     0.20238095     0.20826939     0.42564718
     0.20238095     0.25372393     0.42564718
     0.20238095     0.29917848     0.42564718
     0.20238095     0.34463302     0.42564718
     0.20238095     0.39008757     0.42564718
     0.20238095     0.43554211     0.42564718
     0.20238095     0.48099666     0.42564718
     0.20238095     0.52645121     0.42564718
     0.20238095     0.57190575     0.42564718
     0.20238095     0.61736030     0.42564718
     0.20238095     0.66281484     0.42564718
     0.20238095     0.70826939     0.42564718
     0.20238095     0.75372393     0.42564718
     0.20238095     0.79917848     0.42564718
     0.20238095     0.84463302     0.42564718
     0.20238095     0.89008757     0.42564718
     0.20238095     0.93554211     0.42564718
     0.20238095     0.98099666     0.42564718
     0.22619048     0.02645121     0.42564718
     0.22619048     0.07190575     0.42564718
     0.22619048     0.11736030     0.42564718
     0.22619048     0.16281484     0.42564718
     0.22619048     0.20826939     0.42564718
     0.22619048     0.25372393     0.42564718
     0.22619048     0.29917848     0.42564718
     0.22619048     0.34463302     0.42564718
     0.22619048     0.39008757     0.42564718
     0.22619048     0.43554211     0.42564718
     0.22619048     0.48099666     0.42564718
     0.22619048     0.52645121     0.42564718
     0.22619048     0.57190575     0.42564718
     0.22619048     0.61736030     0.42564718
     0.22619048     0.66281484     0.42564718
     0.22619048     0.70826939     0.42564718
     0.22619048     0.75372393     0.42564718
     0.22619048     0.79917848     0.42564718
     0.22619048     0.84463302     0.42564718
     0.22619048     0.89008757     0.42564718
     0.22619048     0.93554211     0.42564718
     0.22619048     0.98099666     0.42564718
     0.25000000     0.02645121     0.42564718
     0.25000000     0.07190575     0.42564718
     0.25000000     0.11736030     0.42564718
     0.25000000     0.16281484     0.42564718
     0.25000000     0.20826939     0.42564718
     0.25000000     0.25372393     0.42564718
     0.25000000     0.29917848     0.42564718
     0.25000000     0.34463302     0.42564718
     0.25000000     0.39008757     0.42564718
     0.25000000     0.43554211     0.42564718
     0.25000000     0.48099666     0.42564718
     0.25000000     0.52645121     0.42564718
     0.25000000     0.57190575     0.42564718
     0.25000000     0.61736030     0.42564718
     0.25000000     0.66281484     0.42564718
     0.25000000     0.70826939     0.42564718
     0.25000000     0.75372393     0.42564718
     0.25000000     0.79917848     0.42564718
     0.25000000     0.84463302     0.42564718
     0.25000000     0.89008757     0.42564718
     0.25000000     0.93554211     0.42564718
     0.25000000     0.98099666     0.42564718
     0.27380952     0.02645121     0.42564718
     0.27380952     0.07190575     0.42564718
     0.27380952     0.11736030     0.42564718
     0.27380952     0.16281484     0.42564718
     0.27380952     0.20826939     0.42564718
     0.27380952     0.25372393     0.42564718
     0.27380952     0.29917848     0.42564718
     0.27380952     0.34463302     0.42564718
     0.27380952     0.39008757     0.42564718
     0.27380952     0.43554211     0.42564718
     0.27380952     0.48099666     0.42564718
     0.27380952     0.52645121     0.42564718
     0.27380952     0.57190575     0.42564718
     0.27380952     0.61736030     0.42564718
     0.27380952     0.66281484     0.42564718
     0.27380952     0.70826939     0.42564718
     0.27380952     0.75372393     0.42564718
     0.27380952     0.79917848     0.42564718
     0.27380952     0.84463302     0.42564718
     0.27380952     0.89008757     0.42564718
     0.27380952     0.93554211     0.42564718
     0.27380952     0.98099666     0.42564718
     0.29761905     0.02645121     0.42564718
     0.29761905     0.07190575     0.42564718
     0.29761905     0.11736030     0.42564718
     0.29761905     0.16281484     0.42564718
     0.29761905     0.20826939     0.42564718
     0.29761905     0.25372393     0.42564718
     0.29761905     0.29917848     0.42564718
     0.29761905     0.34463302     0.42564718
     0.29761905     0.39008757     0.42564718
     0.29761905     0.43554211     0.42564718
     0.29761905     0.48099666     0.42564718
     0.29761905     0.52645121     0.42564718
     0.29761905     0.57190575     0.42564718
     0.29761905     0.61736030     0.42564718
     0.29761905     0.66281484     0.42564718
     0.29761905     0.70826939     0.42564718
     0.29761905     0.75372393     0.42564718
     0.29761905     0.79917848     0.42564718
     0.29761905     0.84463302     0.42564718
     0.29761905     0.89008757     0.42564718
     0.29761905     0.93554211     0.42564718
     0.29761905     0.98099666     0.42564718
     0.32142857     0.02645121     0.42564718
     0.32142857     0.07190575     0.42564718
     0.32142857     0.11736030     0.42564718
     0.32142857     0.16281484     0.42564718
     0.32142857     0.20826939     0.42564718
     0.32142857     0.25372393     0.42564718
     0.32142857     0.29917848     0.42564718
     0.32142857     0.34463302     0.42564718
     0.32142857     0.39008757     0.42564718
     0.32142857     0.43554211     0.42564718
     0.32142857     0.48099666     0.42564718
     0.32142857     0.52645121     0.42564718
     0.32142857     0.57190575     0.42564718
     0.32142857     0.61736030     0.42564718
     0.32142857     0.66281484     0.42564718
     0.32142857     0.70826939     0.42564718
     0.32142857     0.75372393     0.42564718
     0.32142857     0.79917848     0.42564718
     0.32142857     0.84463302     0.42564718
     0.32142857     0.89008757     0.42564718
     0.32142857     0.93554211     0.42564718
     0.32142857     0.98099666     0.42564718
     0.34523810     0.02645121     0.42564718
     0.34523810     0.07190575     0.42564718
     0.34523810     0.11736030     0.42564718
     0.34523810     0.16281484     0.42564718
     0.34523810     0.20826939     0.42564718
     0.34523810     0.25372393     0.42564718
     0.34523810     0.29917848     0.42564718
     0.34523810     0.34463302     0.42564718
     0.34523810     0.39008757     0.42564718
     0.34523810     0.43554211     0.42564718
     0.34523810     0.48099666     0.42564718
     0.34523810     0.52645121     0.42564718
     0.34523810     0.57190575     0.42564718
     0.34523810     0.61736030     0.42564718
     0.34523810     0.66281484     0.42564718
     0.34523810     0.70826939     0.42564718
     0.34523810     0.75372393     0.42564718
     0.34523810     0.79917848     0.42564718
     0.34523810     0.84463302     0.42564718
     0.34523810     0.89008757     0.42564718
     0.34523810     0.93554211     0.42564718
     0.34523810     0.98099666     0.42564718
     0.36904762     0.02645121     0.42564718
     0.36904762     0.07190575     0.42564718
     0.36904762     0.11736030     0.42564718
     0.36904762     0.16281484     0.42564718
     0.36904762     0.20826939     0.42564718
     0.36904762     0.25372393     0.42564718
     0.36904762     0.29917848     0.42564718
     0.36904762     0.34463302     0.42564718
     0.36904762     0.39008757     0.42564718
     0.36904762     0.43554211     0.42564718
     0.36904762     0.48099666     0.42564718
     0.36904762     0.52645121     0.42564718
     0.36904762     0.57190575     0.42564718
     0.36904762     0.61736030     0.42564718
     0.36904762     0.66281484     0.42564718
     0.36904762     0.70826939     0.42564718
     0.36904762     0.75372393     0.42564718
     0.36904762     0.79917848     0.42564718
     0.36904762     0.84463302     0.42564718
     0.36904762     0.89008757     0.42564718
     0.36904762     0.93554211     0.42564718
     0.36904762     0.98099666     0.42564718
     0.39285714     0.02645121     0.42564718
     0.39285714     0.07190575     0.42564718
     0.39285714     0.11736030     0.42564718
     0.39285714     0.16281484     0.42564718
     0.39285714     0.20826939     0.42564718
     0.39285714     0.25372393     0.42564718
     0.39285714     0.29917848     0.42564718
     0.39285714     0.34463302     0.42564718
     0.39285714     0.39008757     0.42564718
     0.39285714     0.43554211     0.42564718
     0.39285714     0.48099666     0.42564718
     0.39285714     0.52645121     0.42564718
     0.39285714     0.57190575     0.42564718
     0.39285714     0.61736030     0.42564718
     0.39285714     0.66281484     0.42564718
     0.39285714     0.70826939     0.42564718
     0.39285714     0.75372393     0.42564718
     0.39285714     0.79917848     0.42564718
     0.39285714     0.84463302     0.42564718
     0.39285714     0.89008757     0.42564718
     0.39285714     0.93554211     0.42564718
     0.39285714     0.98099666     0.42564718
     0.41666667     0.02645121     0.42564718
     0.41666667     0.07190575     0.42564718
     0.41666667     0.11736030     0.42564718
     0.41666667     0.16281484     0.42564718
     0.41666667     0.20826939     0.42564718
     0.41666667     0.25372393     0.42564718
     0.41666667     0.29917848     0.42564718
     0.41666667     0.34463302     0.42564718
     0.41666667     0.39008757     0.42564718
     0.41666667     0.43554211     0.42564718
     0.41666667     0.48099666     0.42564718
     0.41666667     0.52645121     0.42564718
     0.41666667     0.57190575     0.42564718
     0.41666667     0.61736030     0.42564718
     0.41666667     0.66281484     0.42564718
     0.41666667     0.70826939     0.42564718
     0.41666667     0.75372393     0.42564718
     0.41666667     0.79917848     0.42564718
     0.41666667     0.84463302     0.42564718
     0.41666667     0.89008757     0.42564718
     0.41666667     0.93554211     0.42564718
     0.41666667     0.98099666     0.42564718
     0.44047619     0.02645121     0.42564718
     0.44047619     0.07190575     0.42564718
     0.44047619     0.11736030     0.42564718
     0.44047619     0.16281484     0.42564718
     0.44047619     0.20826939     0.42564718
     0.44047619     0.25372393     0.42564718
     0.44047619     0.29917848     0.42564718
     0.44047619     0.34463302     0.42564718
     0.44047619     0.39008757     0.42564718
     0.44047619     0.43554211     0.42564718
     0.44047619     0.48099666     0.42564718
     0.44047619     0.52645121     0.42564718
     0.44047619     0.57190575     0.42564718
     0.44047619     0.61736030     0.42564718
     0.44047619     0.66281484     0.42564718
     0.44047619     0.70826939     0.42564718
     0.44047619     0.75372393     0.42564718
     0.44047619     0.79917848     0.42564718
     0.44047619     0.84463302     0.42564718
     0.44047619     0.89008757     0.42564718
     0.44047619     0.93554211     0.42564718
     0.44047619     0.98099666     0.42564718
     0.46428571     0.02645121     0.42564718
     0.46428571     0.07190575     0.42564718
     0.46428571     0.11736030     0.42564718
     0.46428571     0.16281484     0.42564718
     0.46428571     0.20826939     0.42564718
     0.46428571     0.25372393     0.42564718
     0.46428571     0.29917848     0.42564718
     0.46428571     0.34463302     0.42564718
     0.46428571     0.39008757     0.42564718
     0.46428571     0.43554211     0.42564718
     0.46428571     0.48099666     0.42564718
     0.46428571     0.52645121     0.42564718
     0.46428571     0.57190575     0.42564718
     0.46428571     0.61736030     0.42564718
     0.46428571     0.66281484     0.42564718
     0.46428571     0.70826939     0.42564718
     0.46428571     0.75372393     0.42564718
     0.46428571     0.79917848     0.42564718
     0.46428571     0.84463302     0.42564718
     0.46428571     0.89008757     0.42564718
     0.46428571     0.93554211     0.42564718
     0.46428571     0.98099666     0.42564718
     0.48809524     0.02645121     0.42564718
     0.48809524     0.07190575     0.42564718
     0.48809524     0.11736030     0.42564718
     0.48809524     0.16281484     0.42564718
     0.48809524     0.20826939     0.42564718
     0.48809524     0.25372393     0.42564718
     0.48809524     0.29917848     0.42564718
     0.48809524     0.34463302     0.42564718
     0.48809524     0.39008757     0.42564718
     0.48809524     0.43554211     0.42564718
     0.48809524     0.48099666     0.42564718
     0.48809524     0.52645121     0.42564718
     0.48809524     0.57190575     0.42564718
     0.48809524     0.61736030     0.42564718
     0.48809524     0.66281484     0.42564718
     0.48809524     0.70826939     0.42564718
     0.48809524     0.75372393     0.42564718
     0.48809524     0.79917848     0.42564718
     0.48809524     0.84463302     0.42564718
     0.48809524     0.89008757     0.42564718
     0.48809524     0.93554211     0.42564718
     0.48809524     0.98099666     0.42564718
     0.51190476     0.02645121     0.42564718
     0.51190476     0.07190575     0.42564718
     0.51190476     0.11736030     0.42564718
     0.51190476     0.16281484     0.42564718
     0.51190476     0.20826939     0.42564718
     0.51190476     0.25372393     0.42564718
     0.51190476     0.29917848     0.42564718
     0.51190476     0.34463302     0.42564718
     0.51190476     0.39008757     0.42564718
     0.51190476     0.43554211     0.42564718
     0.51190476     0.48099666     0.42564718
     0.51190476     0.52645121     0.42564718
     0.51190476     0.57190575     0.42564718
     0.51190476     0.61736030     0.42564718
     0.51190476     0.66281484     0.42564718
     0.51190476     0.70826939     0.42564718
     0.51190476     0.75372393     0.42564718
     0.51190476     0.79917848     0.42564718
     0.51190476     0.84463302     0.42564718
     0.51190476     0.89008757     0.42564718
     0.51190476     0.93554211     0.42564718
     0.51190476     0.98099666     0.42564718
     0.53571429     0.02645121     0.42564718
     0.53571429     0.07190575     0.42564718
     0.53571429     0.11736030     0.42564718
     0.53571429     0.16281484     0.42564718
     0.53571429     0.20826939     0.42564718
     0.53571429     0.25372393     0.42564718
     0.53571429     0.29917848     0.42564718
     0.53571429     0.34463302     0.42564718
     0.53571429     0.39008757     0.42564718
     0.53571429     0.43554211     0.42564718
     0.53571429     0.48099666     0.42564718
     0.53571429     0.52645121     0.42564718
     0.53571429     0.57190575     0.42564718
     0.53571429     0.61736030     0.42564718
     0.53571429     0.66281484     0.42564718
     0.53571429     0.70826939     0.42564718
     0.53571429     0.75372393     0.42564718
     0.53571429     0.79917848     0.42564718
     0.53571429     0.84463302     0.42564718
     0.53571429     0.89008757     0.42564718
     0.53571429     0.93554211     0.42564718
     0.53571429     0.98099666     0.42564718
     0.55952381     0.02645121     0.42564718
     0.55952381     0.07190575     0.42564718
     0.55952381     0.11736030     0.42564718
     0.55952381     0.16281484     0.42564718
     0.55952381     0.20826939     0.42564718
     0.55952381     0.25372393     0.42564718
     0.55952381     0.29917848     0.42564718
     0.55952381     0.34463302     0.42564718
     0.55952381     0.39008757     0.42564718
     0.55952381     0.43554211     0.42564718
     0.55952381     0.48099666     0.42564718
     0.55952381     0.52645121     0.42564718
     0.55952381     0.57190575     0.42564718
     0.55952381     0.61736030     0.42564718
     0.55952381     0.66281484     0.42564718
     0.55952381     0.70826939     0.42564718
     0.55952381     0.75372393     0.42564718
     0.55952381     0.79917848     0.42564718
     0.55952381     0.84463302     0.42564718
     0.55952381     0.89008757     0.42564718
     0.55952381     0.93554211     0.42564718
     0.55952381     0.98099666     0.42564718
     0.58333333     0.02645121     0.42564718
     0.58333333     0.07190575     0.42564718
     0.58333333     0.11736030     0.42564718
     0.58333333     0.16281484     0.42564718
     0.58333333     0.20826939     0.42564718
     0.58333333     0.25372393     0.42564718
     0.58333333     0.29917848     0.42564718
     0.58333333     0.34463302     0.42564718
     0.58333333     0.39008757     0.42564718
     0.58333333     0.43554211     0.42564718
     0.58333333     0.48099666     0.42564718
     0.58333333     0.52645121     0.42564718
     0.58333333     0.57190575     0.42564718
     0.58333333     0.61736030     0.42564718
     0.58333333     0.66281484     0.42564718
     0.58333333     0.70826939     0.42564718
     0.58333333     0.75372393     0.42564718
     0.58333333     0.79917848     0.42564718
     0.58333333     0.84463302     0.42564718
     0.58333333     0.89008757     0.42564718
     0.58333333     0.93554211     0.42564718
     0.58333333     0.98099666     0.42564718
     0.60714286     0.02645121     0.42564718
     0.60714286     0.07190575     0.42564718
     0.60714286     0.11736030     0.42564718
     0.60714286     0.16281484     0.42564718
     0.60714286     0.20826939     0.42564718
     0.60714286     0.25372393     0.42564718
     0.60714286     0.29917848     0.42564718
     0.60714286     0.34463302     0.42564718
     0.60714286     0.39008757     0.42564718
     0.60714286     0.43554211     0.42564718
     0.60714286     0.48099666     0.42564718
     0.60714286     0.52645121     0.42564718
     0.60714286     0.57190575     0.42564718
     0.60714286     0.61736030     0.42564718
     0.60714286     0.66281484     0.42564718
     0.60714286     0.70826939     0.42564718
     0.60714286     0.75372393     0.42564718
     0.60714286     0.79917848     0.42564718
     0.60714286     0.84463302     0.42564718
     0.60714286     0.89008757     0.42564718
     0.60714286     0.93554211     0.42564718
     0.60714286     0.98099666     0.42564718
     0.63095238     0.02645121     0.42564718
     0.63095238     0.07190575     0.42564718
     0.63095238     0.11736030     0.42564718
     0.63095238     0.16281484     0.42564718
     0.63095238     0.20826939     0.42564718
     0.63095238     0.25372393     0.42564718
     0.63095238     0.29917848     0.42564718
     0.63095238     0.34463302     0.42564718
     0.63095238     0.39008757     0.42564718
     0.63095238     0.43554211     0.42564718
     0.63095238     0.48099666     0.42564718
     0.63095238     0.52645121     0.42564718
     0.63095238     0.57190575     0.42564718
     0.63095238     0.61736030     0.42564718
     0.63095238     0.66281484     0.42564718
     0.63095238     0.70826939     0.42564718
     0.63095238     0.75372393     0.42564718
     0.63095238     0.79917848     0.42564718
     0.63095238     0.84463302     0.42564718
     0.63095238     0.89008757     0.42564718
     0.63095238     0.93554211     0.42564718
     0.63095238     0.98099666     0.42564718
     0.65476190     0.02645121     0.42564718
     0.65476190     0.07190575     0.42564718
     0.65476190     0.11736030     0.42564718
     0.65476190     0.16281484     0.42564718
     0.65476190     0.20826939     0.42564718
     0.65476190     0.25372393     0.42564718
     0.65476190     0.29917848     0.42564718
     0.65476190     0.34463302     0.42564718
     0.65476190     0.39008757     0.42564718
     0.65476190     0.43554211     0.42564718
     0.65476190     0.48099666     0.42564718
     0.65476190     0.52645121     0.42564718
     0.65476190     0.57190575     0.42564718
     0.65476190     0.61736030     0.42564718
     0.65476190     0.66281484     0.42564718
     0.65476190     0.70826939     0.42564718
     0.65476190     0.75372393     0.42564718
     0.65476190     0.79917848     0.42564718
     0.65476190     0.84463302     0.42564718
     0.65476190     0.89008757     0.42564718
     0.65476190     0.93554211     0.42564718
     0.65476190     0.98099666     0.42564718
     0.67857143     0.02645121     0.42564718
     0.67857143     0.07190575     0.42564718
     0.67857143     0.11736030     0.42564718
     0.67857143     0.16281484     0.42564718
     0.67857143     0.20826939     0.42564718
     0.67857143     0.25372393     0.42564718
     0.67857143     0.29917848     0.42564718
     0.67857143     0.34463302     0.42564718
     0.67857143     0.39008757     0.42564718
     0.67857143     0.43554211     0.42564718
     0.67857143     0.48099666     0.42564718
     0.67857143     0.52645121     0.42564718
     0.67857143     0.57190575     0.42564718
     0.67857143     0.61736030     0.42564718
     0.67857143     0.66281484     0.42564718
     0.67857143     0.70826939     0.42564718
     0.67857143     0.75372393     0.42564718
     0.67857143     0.79917848     0.42564718
     0.67857143     0.84463302     0.42564718
     0.67857143     0.89008757     0.42564718
     0.67857143     0.93554211     0.42564718
     0.67857143     0.98099666     0.42564718
     0.70238095     0.02645121     0.42564718
     0.70238095     0.07190575     0.42564718
     0.70238095     0.11736030     0.42564718
     0.70238095     0.16281484     0.42564718
     0.70238095     0.20826939     0.42564718
     0.70238095     0.25372393     0.42564718
     0.70238095     0.29917848     0.42564718
     0.70238095     0.34463302     0.42564718
     0.70238095     0.39008757     0.42564718