Generated by Twist2D
    1.0
     148.36498357       0.00000000       0.00000000
       0.00000000     106.33167189       0.00000000
       0.00000000       0.00000000      20.00000000
    P
    8644
Direct
     0.01111111     0.02424694     0.42564718
     0.01111111     0.06591361     0.42564718
     0.01111111     0.10758027     0.42564718
     0.01111111     0.14924694     0.42564718
     0.01111111     0.19091361     0.42564718
     0.01111111     0.23258027     0.42564718
     0.01111111     0.27424694     0.42564718
     0.01111111     0.31591361     0.42564718
     0.01111111     0.35758027     0.42564718
     0.01111111     0.39924694     0.42564718
     0.01111111     0.44091361     0.42564718
     0.01111111     0.48258027     0.42564718
     0.01111111     0.52424694     0.42564718
     0.01111111     0.56591361     0.42564718
     0.01111111     0.60758027     0.42564718
     0.01111111     0.64924694     0.42564718
     0.01111111     0.69091361     0.42564718
     0.01111111     0.73258027     0.42564718
     0.01111111     0.77424694     0.42564718
     0.01111111     0.81591361     0.42564718
     0.01111111     0.85758027     0.42564718
     0.01111111     0.89924694     0.42564718
     0.01111111     0.94091361     0.42564718
     0.01111111     0.98258027     0.42564718
     0.03333333     0.02424694     0.42564718
     0.03333333     0.06591361     0.42564718
     0.03333333     0.10758027     0.42564718
     0.03333333     0.14924694     0.42564718
     0.03333333     0.19091361     0.42564718
     0.03333333     0.23258027     0.42564718
     0.03333333     0.27424694     0.42564718
     0.03333333     0.31591361     0.42564718
     0.03333333     0.35758027     0.42564718
     0.03333333     0.39924694     0.42564718
     0.03333333     0.44091361     0.42564718
     0.03333333     0.48258027     0.42564718
     0.03333333     0.52424694     0.42564718
     0.03333333     0.56591361     0.42564718
     0.03333333     0.60758027     0.42564718
     0.03333333     0.64924694     0.42564718
     0.03333333     0.69091361     0.42564718
     0.03333333     0.73258027     0.42564718
     0.03333333     0.77424694     0.42564718
     0.03333333     0.81591361     0.42564718
     0.03333333     0.85758027     0.42564718
     0.03333333     0.89924694     0.42564718
     0.03333333     0.94091361     0.42564718
     0.03333333     0.98258027     0.42564718
     0.05555556     0.02424694     0.42564718
     0.05555556     0.06591361     0.42564718
     0.05555556     0.10758027     0.42564718
     0.05555556     0.14924694     0.42564718
     0.05555556     0.19091361     0.42564718
     0.05555556     0.23258027     0.42564718
     0.05555556     0.27424694     0.42564718
     0.05555556     0.31591361     0.42564718
     0.05555556     0.35758027     0.42564718
     0.05555556     0.39924694     0.42564718
     0.05555556     0.44091361     0.42564718
     0.05555556     0.48258027     0.42564718
     0.05555556     0.52424694     0.42564718
     0.05555556     0.56591361     0.42564718
     0.05555556     0.60758027     0.42564718
     0.05555556     0.64924694     0.42564718
     0.05555556     0.69091361     0.42564718
     0.05555556     0.73258027     0.42564718
     0.05555556     0.77424694     0.42564718
     0.05555556     0.81591361     0.42564718
     0.05555556     0.85758027     0.42564718
     0.05555556     0.89924694     0.42564718
     0.05555556     0.94091361     0.42564718
     0.05555556     0.98258027     0.42564718
     0.07777778     0.02424694     0.42564718
     0.07777778     0.06591361     0.42564718
     0.07777778     0.10758027     0.42564718
     0.07777778     0.14924694     0.42564718
     0.07777778     0.19091361     0.42564718
     0.07777778     0.23258027     0.42564718
     0.07777778     0.27424694     0.42564718
     0.07777778     0.31591361     0.42564718
     0.07777778     0.35758027     0.42564718
     0.07777778     0.39924694     0.42564718
     0.07777778     0.44091361     0.42564718
     0.07777778     0.48258027     0.42564718
     0.07777778     0.52424694     0.42564718
     0.07777778     0.56591361     0.42564718
     0.07777778     0.60758027     0.42564718
     0.07777778     0.64924694     0.42564718
     0.07777778     0.69091361     0.42564718
     0.07777778     0.73258027     0.42564718
     0.07777778     0.77424694     0.42564718
     0.07777778     0.81591361     0.42564718
     0.07777778     0.85758027     0.42564718
     0.07777778     0.89924694     0.42564718
     0.07777778     0.94091361     0.42564718
     0.07777778     0.98258027     0.42564718
     0.10000000     0.02424694     0.42564718
     0.10000000     0.06591361     0.42564718
     0.10000000     0.10758027     0.42564718
     0.10000000     0.14924694     0.42564718
     0.10000000     0.19091361     0.42564718
     0.10000000     0.23258027     0.42564718
     0.10000000     0.27424694     0.42564718
     0.10000000     0.31591361     0.42564718
     0.10000000     0.35758027     0.42564718
     0.10000000     0.39924694     0.42564718
     0.10000000     0.44091361     0.42564718
     0.10000000     0.48258027     0.42564718
     0.10000000     0.52424694     0.42564718
     0.10000000     0.56591361     0.42564718
     0.10000000     0.60758027     0.42564718
     0.10000000     0.64924694     0.42564718
     0.10000000     0.69091361     0.42564718
     0.10000000     0.73258027     0.42564718
     0.10000000     0.77424694     0.42564718
     0.10000000     0.81591361     0.42564718
     0.10000000     0.85758027     0.42564718
     0.10000000     0.89924694     0.42564718
     0.10000000     0.94091361     0.42564718
     0.10000000     0.98258027     0.42564718
     0.12222222     0.02424694     0.42564718
     0.12222222     0.06591361     0.42564718
     0.12222222     0.10758027     0.42564718
     0.12222222     0.14924694     0.42564718
     0.12222222     0.19091361     0.42564718
     0.12222222     0.23258027     0.42564718
     0.12222222     0.27424694     0.42564718
     0.12222222     0.31591361     0.42564718
     0.12222222     0.35758027     0.42564718
     0.12222222     0.39924694     0.42564718
     0.12222222     0.44091361     0.42564718
     0.12222222     0.48258027     0.42564718
     0.12222222     0.52424694     0.42564718
     0.12222222     0.56591361     0.42564718
     0.12222222     0.60758027     0.42564718
     0.12222222     0.64924694     0.42564718
     0.12222222     0.69091361     0.42564718
     0.12222222     0.73258027     0.42564718
     0.12222222     0.77424694     0.42564718
     0.12222222     0.81591361     0.42564718
     0.12222222     0.85758027     0.42564718
     0.12222222     0.89924694     0.42564718
     0.12222222     0.94091361     0.42564718
     0.12222222     0.98258027     0.42564718
     0.14444444     0.02424694     0.42564718
     0.14444444     0.06591361     0.42564718
     0.14444444     0.10758027     0.42564718
     0.14444444     0.14924694     0.42564718
     0.14444444     0.19091361     0.42564718
     0.14444444     0.23258027     0.42564718
     0.14444444     0.27424694     0.42564718
     0.14444444     0.31591361     0.42564718
     0.14444444     0.35758027     0.42564718
     0.14444444     0.39924694     0.42564718
     0.14444444     0.44091361     0.42564718
     0.14444444     0.48258027     0.42564718
     0.14444444     0.52424694     0.42564718
     0.14444444     0.56591361     0.42564718
     0.14444444     0.60758027     0.42564718
     0.14444444     0.64924694     0.42564718
     0.14444444     0.69091361     0.42564718
     0.14444444     0.73258027     0.42564718
     0.14444444     0.77424694     0.42564718
     0.14444444     0.81591361     0.42564718
     0.14444444     0.85758027     0.42564718
     0.14444444     0.89924694     0.42564718
     0.14444444     0.94091361     0.42564718
     0.14444444     0.98258027     0.42564718
     0.16666667     0.02424694     0.42564718
     0.16666667     0.06591361     0.42564718
     0.16666667     0.10758027     0.42564718
     0.16666667     0.14924694     0.42564718
     0.16666667     0.19091361     0.42564718
     0.16666667     0.23258027     0.42564718
     0.16666667     0.27424694     0.42564718
     0.16666667     0.31591361     0.42564718
     0.16666667     0.35758027     0.42564718
     0.16666667     0.39924694     0.42564718
     0.16666667     0.44091361     0.42564718
     0.16666667     0.48258027     0.42564718
     0.16666667     0.52424694     0.42564718
     0.16666667     0.56591361     0.42564718
     0.16666667     0.60758027     0.42564718
     0.16666667     0.64924694     0.42564718
     0.16666667     0.69091361     0.42564718
     0.16666667     0.73258027     0.42564718
     0.16666667     0.77424694     0.42564718
     0.16666667     0.81591361     0.42564718
     0.16666667     0.85758027     0.42564718
     0.16666667     0.89924694     0.42564718
     0.16666667     0.94091361     0.42564718
     0.16666667     0.98258027     0.42564718
     0.18888889     0.02424694     0.42564718
     0.18888889     0.06591361     0.42564718
     0.18888889     0.10758027     0.42564718
     0.18888889     0.14924694     0.42564718
     0.18888889     0.19091361     0.42564718
     0.18888889     0.23258027     0.42564718
     0.18888889     0.27424694     0.42564718
     0.18888889     0.31591361     0.42564718
     0.18888889     0.35758027     0.42564718
     0.18888889     0.39924694     0.42564718
     0.18888889     0.44091361     0.42564718
     0.18888889     0.48258027     0.42564718
     0.18888889     0.52424694     0.42564718
     0.18888889     0.56591361     0.42564718
     0.18888889     0.60758027     0.42564718
     0.18888889     0.64924694     0.42564718
     0.18888889     0.69091361     0.42564718
     0.18888889     0.73258027     0.42564718
     0.18888889     0.77424694     0.42564718
     0.18888889     0.81591361     0.42564718
     0.18888889     0.85758027     0.42564718
     0.18888889     0.89924694     0.42564718
     0.18888889     0.94091361     0.42564718
     0.18888889     0.98258027     0.42564718
     0.21111111     0.02424694     0.42564718
     0.21111111     0.06591361     0.42564718
     0.21111111     0.10758027     0.42564718
     0.21111111     0.14924694     0.42564718
     0.21111111     0.19091361     0.42564718
     0.21111111     0.23258027     0.42564718
     0.21111111     0.27424694     0.42564718
     0.21111111     0.31591361     0.42564718
     0.21111111     0.35758027     0.42564718
     0.21111111     0.39924694     0.42564718
     0.21111111     0.44091361     0.42564718
     0.21111111     0.48258027     0.42564718
     0.21111111     0.52424694     0.42564718
     0.21111111     0.56591361     0.42564718
     0.21111111     0.60758027     0.42564718
     0.21111111     0.64924694     0.42564718
     0.21111111     0.69091361     0.42564718
     0.21111111     0.73258027     0.42564718
     0.21111111     0.77424694     0.42564718
     0.21111111     0.81591361     0.42564718
     0.21111111     0.85758027     0.42564718
     0.21111111     0.89924694     0.42564718
     0.21111111     0.94091361     0.42564718
     0.21111111     0.98258027     0.42564718
     0.23333333     0.02424694     0.42564718
     0.23333333     0.06591361     0.42564718
     0.23333333     0.10758027     0.42564718
     0.23333333     0.14924694     0.42564718
     0.23333333     0.19091361     0.42564718
     0.23333333     0.23258027     0.42564718
     0.23333333     0.27424694     0.42564718
     0.23333333     0.31591361     0.42564718
     0.23333333     0.35758027     0.42564718
     0.23333333     0.39924694     0.42564718
     0.23333333     0.44091361     0.42564718
     0.23333333     0.48258027     0.42564718
     0.23333333     0.52424694     0.42564718
     0.23333333     0.56591361     0.42564718
     0.23333333     0.60758027     0.42564718
     0.23333333     0.64924694     0.42564718
     0.23333333     0.69091361     0.42564718
     0.23333333     0.73258027     0.42564718
     0.23333333     0.77424694     0.42564718
     0.23333333     0.81591361     0.42564718
     0.23333333     0.85758027     0.42564718
     0.23333333     0.89924694     0.42564718
     0.23333333     0.94091361     0.42564718
     0.23333333     0.98258027     0.42564718
     0.25555556     0.02424694     0.42564718
     0.25555556     0.06591361     0.42564718
     0.25555556     0.10758027     0.42564718
     0.25555556     0.14924694     0.42564718
     0.25555556     0.19091361     0.42564718
     0.25555556     0.23258027     0.42564718
     0.25555556     0.27424694     0.42564718
     0.25555556     0.31591361     0.42564718
     0.25555556     0.35758027     0.42564718
     0.25555556     0.39924694     0.42564718
     0.25555556     0.44091361     0.42564718
     0.25555556     0.48258027     0.42564718
     0.25555556     0.52424694     0.42564718
     0.25555556     0.56591361     0.42564718
     0.25555556     0.60758027     0.42564718
     0.25555556     0.64924694     0.42564718
     0.25555556     0.69091361     0.42564718
     0.25555556     0.73258027     0.42564718
     0.25555556     0.77424694     0.42564718
     0.25555556     0.81591361     0.42564718
     0.25555556     0.85758027     0.42564718
     0.25555556     0.89924694     0.42564718
     0.25555556     0.94091361     0.42564718
     0.25555556     0.98258027     0.42564718
     0.27777778     0.02424694     0.42564718
     0.27777778     0.06591361     0.42564718
     0.27777778     0.10758027     0.42564718
     0.27777778     0.14924694     0.42564718
     0.27777778     0.19091361     0.42564718
     0.27777778     0.23258027     0.42564718
     0.27777778     0.27424694     0.42564718
     0.27777778     0.31591361     0.42564718
     0.27777778     0.35758027     0.42564718
     0.27777778     0.39924694     0.42564718
     0.27777778     0.44091361     0.42564718
     0.27777778     0.48258027     0.42564718
     0.27777778     0.52424694     0.42564718
     0.27777778     0.56591361     0.42564718
     0.27777778     0.60758027     0.42564718
     0.27777778     0.64924694     0.42564718
     0.27777778     0.69091361     0.42564718
     0.27777778     0.73258027     0.42564718
     0.27777778     0.77424694     0.42564718
     0.27777778     0.81591361     0.42564718
     0.27777778     0.85758027     0.42564718
     0.27777778     0.89924694     0.42564718
     0.27777778     0.94091361     0.42564718
     0.27777778     0.98258027     0.42564718
     0.30000000     0.02424694     0.42564718
     0.30000000     0.06591361     0.42564718
     0.30000000     0.10758027     0.42564718
     0.30000000     0.14924694     0.42564718
     0.30000000     0.19091361     0.42564718
     0.30000000     0.23258027     0.42564718
     0.30000000     0.27424694     0.42564718
     0.30000000     0.31591361     0.42564718
     0.30000000     0.35758027     0.42564718
     0.30000000     0.39924694     0.42564718
     0.30000000     0.44091361     0.42564718
     0.30000000     0.48258027     0.42564718
     0.30000000     0.52424694     0.42564718
     0.30000000     0.56591361     0.42564718
     0.30000000     0.60758027     0.42564718
     0.30000000     0.64924694     0.42564718
     0.30000000     0.69091361     0.42564718
     0.30000000     0.73258027     0.42564718
     0.30000000     0.77424694     0.42564718
     0.30000000     0.81591361     0.42564718
     0.30000000     0.85758027     0.42564718
     0.30000000     0.89924694     0.42564718
     0.30000000     0.94091361     0.42564718
     0.30000000     0.98258027     0.42564718
     0.32222222     0.02424694     0.42564718
     0.32222222     0.06591361     0.42564718
     0.32222222     0.10758027     0.42564718
     0.32222222     0.14924694     0.42564718
     0.32222222     0.19091361     0.42564718
     0.32222222     0.23258027     0.42564718
     0.32222222     0.27424694     0.42564718
     0.32222222     0.31591361     0.42564718
     0.32222222     0.35758027     0.42564718
     0.32222222     0.39924694     0.42564718
     0.32222222     0.44091361     0.42564718
     0.32222222     0.48258027     0.42564718
     0.32222222     0.52424694     0.42564718
     0.32222222     0.56591361     0.42564718
     0.32222222     0.60758027     0.42564718
     0.32222222     0.64924694     0.42564718
     0.32222222     0.69091361     0.42564718
     0.32222222     0.73258027     0.42564718
     0.32222222     0.77424694     0.42564718
     0.32222222     0.81591361     0.42564718
     0.32222222     0.85758027     0.42564718
     0.32222222     0.89924694     0.42564718
     0.32222222     0.94091361     0.42564718
     0.32222222     0.98258027     0.42564718
     0.34444444     0.02424694     0.42564718
     0.34444444     0.06591361     0.42564718
     0.34444444     0.10758027     0.42564718
     0.34444444     0.14924694     0.42564718
     0.34444444     0.19091361     0.42564718
     0.34444444     0.23258027     0.42564718
     0.34444444     0.27424694     0.42564718
     0.34444444     0.31591361     0.42564718
     0.34444444     0.35758027     0.42564718
     0.34444444     0.39924694     0.42564718
     0.34444444     0.44091361     0.42564718
     0.34444444     0.48258027     0.42564718
     0.34444444     0.52424694     0.42564718
     0.34444444     0.56591361     0.42564718
     0.34444444     0.60758027     0.42564718
     0.34444444     0.64924694     0.42564718
     0.34444444     0.69091361     0.42564718
     0.34444444     0.73258027     0.42564718
     0.34444444     0.77424694     0.42564718
     0.34444444     0.81591361     0.42564718
     0.34444444     0.85758027     0.42564718
     0.34444444     0.89924694     0.42564718
     0.34444444     0.94091361     0.42564718
     0.34444444     0.98258027     0.42564718
     0.36666667     0.02424694     0.42564718
     0.36666667     0.06591361     0.42564718
     0.36666667     0.10758027     0.42564718
     0.36666667     0.14924694     0.42564718
     0.36666667     0.19091361     0.42564718
     0.36666667     0.23258027     0.42564718
     0.36666667     0.27424694     0.42564718
     0.36666667     0.31591361     0.42564718
     0.36666667     0.35758027     0.42564718
     0.36666667     0.39924694     0.42564718
     0.36666667     0.44091361     0.42564718
     0.36666667     0.48258027     0.42564718
     0.36666667     0.52424694     0.42564718
     0.36666667     0.56591361     0.42564718
     0.36666667     0.60758027     0.42564718
     0.36666667     0.64924694     0.42564718
     0.36666667     0.69091361     0.42564718
     0.36666667     0.73258027     0.42564718
     0.36666667     0.77424694     0.42564718
     0.36666667     0.81591361     0.42564718
     0.36666667     0.85758027     0.42564718
     0.36666667     0.89924694     0.42564718
     0.36666667     0.94091361     0.42564718
     0.36666667     0.98258027     0.42564718
     0.38888889     0.02424694     0.42564718
     0.38888889     0.06591361     0.42564718
     0.38888889     0.10758027     0.42564718
     0.38888889     0.14924694     0.42564718
     0.38888889     0.19091361     0.42564718
     0.38888889     0.23258027     0.42564718
     0.38888889     0.27424694     0.42564718
     0.38888889     0.31591361     0.42564718
     0.38888889     0.35758027     0.42564718
     0.38888889     0.39924694     0.42564718
     0.38888889     0.44091361     0.42564718
     0.38888889     0.48258027     0.42564718
     0.38888889     0.52424694     0.42564718
     0.38888889     0.56591361     0.42564718
     0.38888889     0.60758027     0.42564718
     0.38888889     0.64924694     0.42564718
     0.38888889     0.69091361     0.42564718
     0.38888889     0.73258027     0.42564718
     0.38888889     0.77424694     0.42564718
     0.38888889     0.81591361     0.42564718
     0.38888889     0.85758027     0.42564718
     0.38888889     0.89924694     0.42564718
     0.38888889     0.94091361     0.42564718
     0.38888889     0.98258027     0.42564718
     0.41111111     0.02424694     0.42564718
     0.41111111     0.06591361     0.42564718
     0.41111111     0.10758027     0.42564718
     0.41111111     0.14924694     0.42564718
     0.41111111     0.19091361     0.42564718
     0.41111111     0.23258027     0.42564718
     0.41111111     0.27424694     0.42564718
     0.41111111     0.31591361     0.42564718
     0.41111111     0.35758027     0.42564718
     0.41111111     0.39924694     0.42564718
     0.41111111     0.44091361     0.42564718
     0.41111111     0.48258027     0.42564718
     0.41111111     0.52424694     0.42564718
     0.41111111     0.56591361     0.42564718
     0.41111111     0.60758027     0.42564718
     0.41111111     0.64924694     0.42564718
     0.41111111     0.69091361     0.42564718
     0.41111111     0.73258027     0.42564718
     0.41111111     0.77424694     0.42564718
     0.41111111     0.81591361     0.42564718
     0.41111111     0.85758027     0.42564718
     0.41111111     0.89924694     0.42564718
     0.41111111     0.94091361     0.42564718
     0.41111111     0.98258027     0.42564718
     0.43333333     0.02424694     0.42564718
     0.43333333     0.06591361     0.42564718
     0.43333333     0.10758027     0.42564718
     0.43333333     0.14924694     0.42564718
     0.43333333     0.19091361     0.42564718
     0.43333333     0.23258027     0.42564718
     0.43333333     0.27424694     0.42564718
     0.43333333     0.31591361     0.42564718
     0.43333333     0.35758027     0.42564718
     0.43333333     0.39924694     0.42564718
     0.43333333     0.44091361     0.42564718
     0.43333333     0.48258027     0.42564718
     0.43333333     0.52424694     0.42564718
     0.43333333     0.56591361     0.42564718
     0.43333333     0.60758027     0.42564718
     0.43333333     0.64924694     0.42564718
     0.43333333     0.69091361     0.42564718
     0.43333333     0.73258027     0.42564718
     0.43333333     0.77424694     0.42564718
     0.43333333     0.81591361     0.42564718
     0.43333333     0.85758027     0.42564718
     0.43333333     0.89924694     0.42564718
     0.43333333     0.94091361     0.42564718
     0.43333333     0.98258027     0.42564718
     0.45555556     0.02424694     0.42564718
     0.45555556     0.06591361     0.42564718
     0.45555556     0.10758027     0.42564718
     0.45555556     0.14924694     0.42564718
     0.45555556     0.19091361     0.42564718
     0.45555556     0.23258027     0.42564718
     0.45555556     0.27424694     0.42564718
     0.45555556     0.31591361     0.42564718
     0.45555556     0.35758027     0.42564718
     0.45555556     0.39924694     0.42564718
     0.45555556     0.44091361     0.42564718
     0.45555556     0.48258027     0.42564718
     0.45555556     0.52424694     0.42564718
     0.45555556     0.56591361     0.42564718
     0.45555556     0.60758027     0.42564718
     0.45555556     0.64924694     0.42564718
     0.45555556     0.69091361     0.42564718
     0.45555556     0.73258027     0.42564718
     0.45555556     0.77424694     0.42564718
     0.45555556     0.81591361     0.42564718
     0.45555556     0.85758027     0.42564718
     0.45555556     0.89924694     0.42564718
     0.45555556     0.94091361     0.42564718
     0.45555556     0.98258027     0.42564718
     0.47777778     0.02424694     0.42564718
     0.47777778     0.06591361     0.42564718
     0.47777778     0.10758027     0.42564718
     0.47777778     0.14924694     0.42564718
     0.47777778     0.19091361     0.42564718
     0.47777778     0.23258027     0.42564718
     0.47777778     0.27424694     0.42564718
     0.47777778     0.31591361     0.42564718
     0.47777778     0.35758027     0.42564718
     0.47777778     0.39924694     0.42564718
     0.47777778     0.44091361     0.42564718
     0.47777778     0.48258027     0.42564718
     0.47777778     0.52424694     0.42564718
     0.47777778     0.56591361     0.42564718
     0.47777778     0.60758027     0.42564718
     0.47777778     0.64924694     0.42564718
     0.47777778     0.69091361     0.42564718
     0.47777778     0.73258027     0.42564718
     0.47777778     0.77424694     0.42564718
     0.47777778     0.81591361     0.42564718
     0.47777778     0.85758027     0.42564718
     0.47777778     0.89924694     0.42564718
     0.47777778     0.94091361     0.42564718
     0.47777778     0.98258027     0.42564718
     0.50000000     0.02424694     0.42564718
     0.50000000     0.06591361     0.42564718
     0.50000000     0.10758027     0.42564718
     0.50000000     0.14924694     0.42564718
     0.50000000     0.19091361     0.42564718
     0.50000000     0.23258027     0.42564718
     0.50000000     0.27424694     0.42564718
     0.50000000     0.31591361     0.42564718
     0.50000000     0.35758027     0.42564718
     0.50000000     0.39924694     0.42564718
     0.50000000     0.44091361     0.42564718
     0.50000000     0.48258027     0.42564718
     0.50000000     0.52424694     0.42564718
     0.50000000     0.56591361     0.42564718
     0.50000000     0.60758027     0.42564718
     0.50000000     0.64924694     0.42564718
     0.50000000     0.69091361     0.42564718
     0.50000000     0.73258027     0.42564718
     0.50000000     0.77424694     0.42564718
     0.50000000     0.81591361     0.42564718
     0.50000000     0.85758027     0.42564718
     0.50000000     0.89924694     0.42564718
     0.50000000     0.94091361     0.42564718
     0.50000000     0.98258027     0.42564718
     0.52222222     0.02424694     0.42564718
     0.52222222     0.06591361     0.42564718
     0.52222222     0.10758027     0.42564718
     0.52222222     0.14924694     0.42564718
     0.52222222     0.19091361     0.42564718
     0.52222222     0.23258027     0.42564718
     0.52222222     0.27424694     0.42564718
     0.52222222     0.31591361     0.42564718
     0.52222222     0.35758027     0.42564718
     0.52222222     0.39924694     0.42564718
     0.52222222     0.44091361     0.42564718
     0.52222222     0.48258027     0.42564718
     0.52222222     0.52424694     0.42564718
     0.52222222     0.56591361     0.42564718
     0.52222222     0.60758027     0.42564718
     0.52222222     0.64924694     0.42564718
     0.52222222     0.69091361     0.42564718
     0.52222222     0.73258027     0.42564718
     0.52222222     0.77424694     0.42564718
     0.52222222     0.81591361     0.42564718
     0.52222222     0.85758027     0.42564718
     0.52222222     0.89924694     0.42564718
     0.52222222     0.94091361     0.42564718
     0.52222222     0.98258027     0.42564718
     0.54444444     0.02424694     0.42564718
     0.54444444     0.06591361     0.42564718
     0.54444444     0.10758027     0.42564718
     0.54444444     0.14924694     0.42564718
     0.54444444     0.19091361     0.42564718
     0.54444444     0.23258027     0.42564718
     0.54444444     0.27424694     0.42564718
     0.54444444     0.31591361     0.42564718
     0.54444444     0.35758027     0.42564718
     0.54444444     0.39924694     0.42564718
     0.54444444     0.44091361     0.42564718
     0.54444444     0.48258027     0.42564718
     0.54444444     0.52424694     0.42564718
     0.54444444     0.56591361     0.42564718
     0.54444444     0.60758027     0.42564718
     0.54444444     0.64924694     0.42564718
     0.54444444     0.69091361     0.42564718
     0.54444444     0.73258027     0.42564718
     0.54444444     0.77424694     0.42564718
     0.54444444     0.81591361     0.42564718
     0.54444444     0.85758027     0.42564718
     0.54444444     0.89924694     0.42564718
     0.54444444     0.94091361     0.42564718
     0.54444444     0.98258027     0.42564718
     0.56666667     0.02424694     0.42564718
     0.56666667     0.06591361     0.42564718
     0.56666667     0.10758027     0.42564718
     0.56666667     0.14924694     0.42564718
     0.56666667     0.19091361     0.42564718
     0.56666667     0.23258027     0.42564718
     0.56666667     0.27424694     0.42564718
     0.56666667     0.31591361     0.42564718
     0.56666667     0.35758027     0.42564718
     0.56666667     0.39924694     0.42564718
     0.56666667     0.44091361     0.42564718
     0.56666667     0.48258027     0.42564718
     0.56666667     0.52424694     0.42564718
     0.56666667     0.56591361     0.42564718
     0.56666667     0.60758027     0.42564718
     0.56666667     0.64924694     0.42564718
     0.56666667     0.69091361     0.42564718
     0.56666667     0.73258027     0.42564718
     0.56666667     0.77424694     0.42564718
     0.56666667     0.81591361     0.42564718
     0.56666667     0.85758027     0.42564718
     0.56666667     0.89924694     0.42564718
     0.56666667     0.94091361     0.42564718
     0.56666667     0.98258027     0.42564718
     0.58888889     0.02424694     0.42564718
     0.58888889     0.06591361     0.42564718
     0.58888889     0.10758027     0.42564718
     0.58888889     0.14924694     0.42564718
     0.58888889     0.19091361     0.42564718
     0.58888889     0.23258027     0.42564718
     0.58888889     0.27424694     0.42564718
     0.58888889     0.31591361     0.42564718
     0.58888889     0.35758027     0.42564718
     0.58888889     0.39924694     0.42564718
     0.58888889     0.44091361     0.42564718
     0.58888889     0.48258027     0.42564718
     0.58888889     0.52424694     0.42564718
     0.58888889     0.56591361     0.42564718
     0.58888889     0.60758027     0.42564718
     0.58888889     0.64924694     0.42564718
     0.58888889     0.69091361     0.42564718
     0.58888889     0.73258027     0.42564718
     0.58888889     0.77424694     0.42564718
     0.58888889     0.81591361     0.42564718
     0.58888889     0.85758027     0.42564718
     0.58888889     0.89924694     0.42564718
     0.58888889     0.94091361     0.42564718