Generated by Twist2D
    1.0
     158.25598248       0.00000000       0.00000000
       0.00000000     115.19264455       0.00000000
       0.00000000       0.00000000      20.00000000
    P
    9988
Direct
     0.01041667     0.02238179     0.42564718
     0.01041667     0.06084333     0.42564718
     0.01041667     0.09930487     0.42564718
     0.01041667     0.13776640     0.42564718
     0.01041667     0.17622794     0.42564718
     0.01041667     0.21468948     0.42564718
     0.01041667     0.25315102     0.42564718
     0.01041667     0.29161256     0.42564718
     0.01041667     0.33007410     0.42564718
     0.01041667     0.36853564     0.42564718
     0.01041667     0.40699717     0.42564718
     0.01041667     0.44545871     0.42564718
     0.01041667     0.48392025     0.42564718
     0.01041667     0.52238179     0.42564718
     0.01041667     0.56084333     0.42564718
     0.01041667     0.59930487     0.42564718
     0.01041667     0.63776640     0.42564718
     0.01041667     0.67622794     0.42564718
     0.01041667     0.71468948     0.42564718
     0.01041667     0.75315102     0.42564718
     0.01041667     0.79161256     0.42564718
     0.01041667     0.83007410     0.42564718
     0.01041667     0.86853564     0.42564718
     0.01041667     0.90699717     0.42564718
     0.01041667     0.94545871     0.42564718
     0.01041667     0.98392025     0.42564718
     0.03125000     0.02238179     0.42564718
     0.03125000     0.06084333     0.42564718
     0.03125000     0.09930487     0.42564718
     0.03125000     0.13776640     0.42564718
     0.03125000     0.17622794     0.42564718
     0.03125000     0.21468948     0.42564718
     0.03125000     0.25315102     0.42564718
     0.03125000     0.29161256     0.42564718
     0.03125000     0.33007410     0.42564718
     0.03125000     0.36853564     0.42564718
     0.03125000     0.40699717     0.42564718
     0.03125000     0.44545871     0.42564718
     0.03125000     0.48392025     0.42564718
     0.03125000     0.52238179     0.42564718
     0.03125000     0.56084333     0.42564718
     0.03125000     0.59930487     0.42564718
     0.03125000     0.63776640     0.42564718
     0.03125000     0.67622794     0.42564718
     0.03125000     0.71468948     0.42564718
     0.03125000     0.75315102     0.42564718
     0.03125000     0.79161256     0.42564718
     0.03125000     0.83007410     0.42564718
     0.03125000     0.86853564     0.42564718
     0.03125000     0.90699717     0.42564718
     0.03125000     0.94545871     0.42564718
     0.03125000     0.98392025     0.42564718
     0.05208333     0.02238179     0.42564718
     0.05208333     0.06084333     0.42564718
     0.05208333     0.09930487     0.42564718
     0.05208333     0.13776640     0.42564718
     0.05208333     0.17622794     0.42564718
     0.05208333     0.21468948     0.42564718
     0.05208333     0.25315102     0.42564718
     0.05208333     0.29161256     0.42564718
     0.05208333     0.33007410     0.42564718
     0.05208333     0.36853564     0.42564718
     0.05208333     0.40699717     0.42564718
     0.05208333     0.44545871     0.42564718
     0.05208333     0.48392025     0.42564718
     0.05208333     0.52238179     0.42564718
     0.05208333     0.56084333     0.42564718
     0.05208333     0.59930487     0.42564718
     0.05208333     0.63776640     0.42564718
     0.05208333     0.67622794     0.42564718
     0.05208333     0.71468948     0.42564718
     0.05208333     0.75315102     0.42564718
     0.05208333     0.79161256     0.42564718
     0.05208333     0.83007410     0.42564718
     0.05208333     0.86853564     0.42564718
     0.05208333     0.90699717     0.42564718
     0.05208333     0.94545871     0.42564718
     0.05208333     0.98392025     0.42564718
     0.07291667     0.02238179     0.42564718
     0.07291667     0.06084333     0.42564718
     0.07291667     0.09930487     0.42564718
     0.07291667     0.13776640     0.42564718
     0.07291667     0.17622794     0.42564718
     0.07291667     0.21468948     0.42564718
     0.07291667     0.25315102     0.42564718
     0.07291667     0.29161256     0.42564718
     0.07291667     0.33007410     0.42564718
     0.07291667     0.36853564     0.42564718
     0.07291667     0.40699717     0.42564718
     0.07291667     0.44545871     0.42564718
     0.07291667     0.48392025     0.42564718
     0.07291667     0.52238179     0.42564718
     0.07291667     0.56084333     0.42564718
     0.07291667     0.59930487     0.42564718
     0.07291667     0.63776640     0.42564718
     0.07291667     0.67622794     0.42564718
     0.07291667     0.71468948     0.42564718
     0.07291667     0.75315102     0.42564718
     0.07291667     0.79161256     0.42564718
     0.07291667     0.83007410     0.42564718
     0.07291667     0.86853564     0.42564718
     0.07291667     0.90699717     0.42564718
     0.07291667     0.94545871     0.42564718
     0.07291667     0.98392025     0.42564718
     0.09375000     0.02238179     0.42564718
     0.09375000     0.06084333     0.42564718
     0.09375000     0.09930487     0.42564718
     0.09375000     0.13776640     0.42564718
     0.09375000     0.17622794     0.42564718
     0.09375000     0.21468948     0.42564718
     0.09375000     0.25315102     0.42564718
     0.09375000     0.29161256     0.42564718
     0.09375000     0.33007410     0.42564718
     0.09375000     0.36853564     0.42564718
     0.09375000     0.40699717     0.42564718
     0.09375000     0.44545871     0.42564718
     0.09375000     0.48392025     0.42564718
     0.09375000     0.52238179     0.42564718
     0.09375000     0.56084333     0.42564718
     0.09375000     0.59930487     0.42564718
     0.09375000     0.63776640     0.42564718
     0.09375000     0.67622794     0.42564718
     0.09375000     0.71468948     0.42564718
     0.09375000     0.75315102     0.42564718
     0.09375000     0.79161256     0.42564718
     0.09375000     0.83007410     0.42564718
     0.09375000     0.86853564     0.42564718
     0.09375000     0.90699717     0.42564718
     0.09375000     0.94545871     0.42564718
     0.09375000     0.98392025     0.42564718
     0.11458333     0.02238179     0.42564718
     0.11458333     0.06084333     0.42564718
     0.11458333     0.09930487     0.42564718
     0.11458333     0.13776640     0.42564718
     0.11458333     0.17622794     0.42564718
     0.11458333     0.21468948     0.42564718
     0.11458333     0.25315102     0.42564718
     0.11458333     0.29161256     0.42564718
     0.11458333     0.33007410     0.42564718
     0.11458333     0.36853564     0.42564718
     0.11458333     0.40699717     0.42564718
     0.11458333     0.44545871     0.42564718
     0.11458333     0.48392025     0.42564718
     0.11458333     0.52238179     0.42564718
     0.11458333     0.56084333     0.42564718
     0.11458333     0.59930487     0.42564718
     0.11458333     0.63776640     0.42564718
     0.11458333     0.67622794     0.42564718
     0.11458333     0.71468948     0.42564718
     0.11458333     0.75315102     0.42564718
     0.11458333     0.79161256     0.42564718
     0.11458333     0.83007410     0.42564718
     0.11458333     0.86853564     0.42564718
     0.11458333     0.90699717     0.42564718
     0.11458333     0.94545871     0.42564718
     0.11458333     0.98392025     0.42564718
     0.13541667     0.02238179     0.42564718
     0.13541667     0.06084333     0.42564718
     0.13541667     0.09930487     0.42564718
     0.13541667     0.13776640     0.42564718
     0.13541667     0.17622794     0.42564718
     0.13541667     0.21468948     0.42564718
     0.13541667     0.25315102     0.42564718
     0.13541667     0.29161256     0.42564718
     0.13541667     0.33007410     0.42564718
     0.13541667     0.36853564     0.42564718
     0.13541667     0.40699717     0.42564718
     0.13541667     0.44545871     0.42564718
     0.13541667     0.48392025     0.42564718
     0.13541667     0.52238179     0.42564718
     0.13541667     0.56084333     0.42564718
     0.13541667     0.59930487     0.42564718
     0.13541667     0.63776640     0.42564718
     0.13541667     0.67622794     0.42564718
     0.13541667     0.71468948     0.42564718
     0.13541667     0.75315102     0.42564718
     0.13541667     0.79161256     0.42564718
     0.13541667     0.83007410     0.42564718
     0.13541667     0.86853564     0.42564718
     0.13541667     0.90699717     0.42564718
     0.13541667     0.94545871     0.42564718
     0.13541667     0.98392025     0.42564718
     0.15625000     0.02238179     0.42564718
     0.15625000     0.06084333     0.42564718
     0.15625000     0.09930487     0.42564718
     0.15625000     0.13776640     0.42564718
     0.15625000     0.17622794     0.42564718
     0.15625000     0.21468948     0.42564718
     0.15625000     0.25315102     0.42564718
     0.15625000     0.29161256     0.42564718
     0.15625000     0.33007410     0.42564718
     0.15625000     0.36853564     0.42564718
     0.15625000     0.40699717     0.42564718
     0.15625000     0.44545871     0.42564718
     0.15625000     0.48392025     0.42564718
     0.15625000     0.52238179     0.42564718
     0.15625000     0.56084333     0.42564718
     0.15625000     0.59930487     0.42564718
     0.15625000     0.63776640     0.42564718
     0.15625000     0.67622794     0.42564718
     0.15625000     0.71468948     0.42564718
     0.15625000     0.75315102     0.42564718
     0.15625000     0.79161256     0.42564718
     0.15625000     0.83007410     0.42564718
     0.15625000     0.86853564     0.42564718
     0.15625000     0.90699717     0.42564718
     0.15625000     0.94545871     0.42564718
     0.15625000     0.98392025     0.42564718
     0.17708333     0.02238179     0.42564718
     0.17708333     0.06084333     0.42564718
     0.17708333     0.09930487     0.42564718
     0.17708333     0.13776640     0.42564718
     0.17708333     0.17622794     0.42564718
     0.17708333     0.21468948     0.42564718
     0.17708333     0.25315102     0.42564718
     0.17708333     0.29161256     0.42564718
     0.17708333     0.33007410     0.42564718
     0.17708333     0.36853564     0.42564718
     0.17708333     0.40699717     0.42564718
     0.17708333     0.44545871     0.42564718
     0.17708333     0.48392025     0.42564718
     0.17708333     0.52238179     0.42564718
     0.17708333     0.56084333     0.42564718
     0.17708333     0.59930487     0.42564718
     0.17708333     0.63776640     0.42564718
     0.17708333     0.67622794     0.42564718
     0.17708333     0.71468948     0.42564718
     0.17708333     0.75315102     0.42564718
     0.17708333     0.79161256     0.42564718
     0.17708333     0.83007410     0.42564718
     0.17708333     0.86853564     0.42564718
     0.17708333     0.90699717     0.42564718
     0.17708333     0.94545871     0.42564718
     0.17708333     0.98392025     0.42564718
     0.19791667     0.02238179     0.42564718
     0.19791667     0.06084333     0.42564718
     0.19791667     0.09930487     0.42564718
     0.19791667     0.13776640     0.42564718
     0.19791667     0.17622794     0.42564718
     0.19791667     0.21468948     0.42564718
     0.19791667     0.25315102     0.42564718
     0.19791667     0.29161256     0.42564718
     0.19791667     0.33007410     0.42564718
     0.19791667     0.36853564     0.42564718
     0.19791667     0.40699717     0.42564718
     0.19791667     0.44545871     0.42564718
     0.19791667     0.48392025     0.42564718
     0.19791667     0.52238179     0.42564718
     0.19791667     0.56084333     0.42564718
     0.19791667     0.59930487     0.42564718
     0.19791667     0.63776640     0.42564718
     0.19791667     0.67622794     0.42564718
     0.19791667     0.71468948     0.42564718
     0.19791667     0.75315102     0.42564718
     0.19791667     0.79161256     0.42564718
     0.19791667     0.83007410     0.42564718
     0.19791667     0.86853564     0.42564718
     0.19791667     0.90699717     0.42564718
     0.19791667     0.94545871     0.42564718
     0.19791667     0.98392025     0.42564718
     0.21875000     0.02238179     0.42564718
     0.21875000     0.06084333     0.42564718
     0.21875000     0.09930487     0.42564718
     0.21875000     0.13776640     0.42564718
     0.21875000     0.17622794     0.42564718
     0.21875000     0.21468948     0.42564718
     0.21875000     0.25315102     0.42564718
     0.21875000     0.29161256     0.42564718
     0.21875000     0.33007410     0.42564718
     0.21875000     0.36853564     0.42564718
     0.21875000     0.40699717     0.42564718
     0.21875000     0.44545871     0.42564718
     0.21875000     0.48392025     0.42564718
     0.21875000     0.52238179     0.42564718
     0.21875000     0.56084333     0.42564718
     0.21875000     0.59930487     0.42564718
     0.21875000     0.63776640     0.42564718
     0.21875000     0.67622794     0.42564718
     0.21875000     0.71468948     0.42564718
     0.21875000     0.75315102     0.42564718
     0.21875000     0.79161256     0.42564718
     0.21875000     0.83007410     0.42564718
     0.21875000     0.86853564     0.42564718
     0.21875000     0.90699717     0.42564718
     0.21875000     0.94545871     0.42564718
     0.21875000     0.98392025     0.42564718
     0.23958333     0.02238179     0.42564718
     0.23958333     0.06084333     0.42564718
     0.23958333     0.09930487     0.42564718
     0.23958333     0.13776640     0.42564718
     0.23958333     0.17622794     0.42564718
     0.23958333     0.21468948     0.42564718
     0.23958333     0.25315102     0.42564718
     0.23958333     0.29161256     0.42564718
     0.23958333     0.33007410     0.42564718
     0.23958333     0.36853564     0.42564718
     0.23958333     0.40699717     0.42564718
     0.23958333     0.44545871     0.42564718
     0.23958333     0.48392025     0.42564718
     0.23958333     0.52238179     0.42564718
     0.23958333     0.56084333     0.42564718
     0.23958333     0.59930487     0.42564718
     0.23958333     0.63776640     0.42564718
     0.23958333     0.67622794     0.42564718
     0.23958333     0.71468948     0.42564718
     0.23958333     0.75315102     0.42564718
     0.23958333     0.79161256     0.42564718
     0.23958333     0.83007410     0.42564718
     0.23958333     0.86853564     0.42564718
     0.23958333     0.90699717     0.42564718
     0.23958333     0.94545871     0.42564718
     0.23958333     0.98392025     0.42564718
     0.26041667     0.02238179     0.42564718
     0.26041667     0.06084333     0.42564718
     0.26041667     0.09930487     0.42564718
     0.26041667     0.13776640     0.42564718
     0.26041667     0.17622794     0.42564718
     0.26041667     0.21468948     0.42564718
     0.26041667     0.25315102     0.42564718
     0.26041667     0.29161256     0.42564718
     0.26041667     0.33007410     0.42564718
     0.26041667     0.36853564     0.42564718
     0.26041667     0.40699717     0.42564718
     0.26041667     0.44545871     0.42564718
     0.26041667     0.48392025     0.42564718
     0.26041667     0.52238179     0.42564718
     0.26041667     0.56084333     0.42564718
     0.26041667     0.59930487     0.42564718
     0.26041667     0.63776640     0.42564718
     0.26041667     0.67622794     0.42564718
     0.26041667     0.71468948     0.42564718
     0.26041667     0.75315102     0.42564718
     0.26041667     0.79161256     0.42564718
     0.26041667     0.83007410     0.42564718
     0.26041667     0.86853564     0.42564718
     0.26041667     0.90699717     0.42564718
     0.26041667     0.94545871     0.42564718
     0.26041667     0.98392025     0.42564718
     0.28125000     0.02238179     0.42564718
     0.28125000     0.06084333     0.42564718
     0.28125000     0.09930487     0.42564718
     0.28125000     0.13776640     0.42564718
     0.28125000     0.17622794     0.42564718
     0.28125000     0.21468948     0.42564718
     0.28125000     0.25315102     0.42564718
     0.28125000     0.29161256     0.42564718
     0.28125000     0.33007410     0.42564718
     0.28125000     0.36853564     0.42564718
     0.28125000     0.40699717     0.42564718
     0.28125000     0.44545871     0.42564718
     0.28125000     0.48392025     0.42564718
     0.28125000     0.52238179     0.42564718
     0.28125000     0.56084333     0.42564718
     0.28125000     0.59930487     0.42564718
     0.28125000     0.63776640     0.42564718
     0.28125000     0.67622794     0.42564718
     0.28125000     0.71468948     0.42564718
     0.28125000     0.75315102     0.42564718
     0.28125000     0.79161256     0.42564718
     0.28125000     0.83007410     0.42564718
     0.28125000     0.86853564     0.42564718
     0.28125000     0.90699717     0.42564718
     0.28125000     0.94545871     0.42564718
     0.28125000     0.98392025     0.42564718
     0.30208333     0.02238179     0.42564718
     0.30208333     0.06084333     0.42564718
     0.30208333     0.09930487     0.42564718
     0.30208333     0.13776640     0.42564718
     0.30208333     0.17622794     0.42564718
     0.30208333     0.21468948     0.42564718
     0.30208333     0.25315102     0.42564718
     0.30208333     0.29161256     0.42564718
     0.30208333     0.33007410     0.42564718
     0.30208333     0.36853564     0.42564718
     0.30208333     0.40699717     0.42564718
     0.30208333     0.44545871     0.42564718
     0.30208333     0.48392025     0.42564718
     0.30208333     0.52238179     0.42564718
     0.30208333     0.56084333     0.42564718
     0.30208333     0.59930487     0.42564718
     0.30208333     0.63776640     0.42564718
     0.30208333     0.67622794     0.42564718
     0.30208333     0.71468948     0.42564718
     0.30208333     0.75315102     0.42564718
     0.30208333     0.79161256     0.42564718
     0.30208333     0.83007410     0.42564718
     0.30208333     0.86853564     0.42564718
     0.30208333     0.90699717     0.42564718
     0.30208333     0.94545871     0.42564718
     0.30208333     0.98392025     0.42564718
     0.32291667     0.02238179     0.42564718
     0.32291667     0.06084333     0.42564718
     0.32291667     0.09930487     0.42564718
     0.32291667     0.13776640     0.42564718
     0.32291667     0.17622794     0.42564718
     0.32291667     0.21468948     0.42564718
     0.32291667     0.25315102     0.42564718
     0.32291667     0.29161256     0.42564718
     0.32291667     0.33007410     0.42564718
     0.32291667     0.36853564     0.42564718
     0.32291667     0.40699717     0.42564718
     0.32291667     0.44545871     0.42564718
     0.32291667     0.48392025     0.42564718
     0.32291667     0.52238179     0.42564718
     0.32291667     0.56084333     0.42564718
     0.32291667     0.59930487     0.42564718
     0.32291667     0.63776640     0.42564718
     0.32291667     0.67622794     0.42564718
     0.32291667     0.71468948     0.42564718
     0.32291667     0.75315102     0.42564718
     0.32291667     0.79161256     0.42564718
     0.32291667     0.83007410     0.42564718
     0.32291667     0.86853564     0.42564718
     0.32291667     0.90699717     0.42564718
     0.32291667     0.94545871     0.42564718
     0.32291667     0.98392025     0.42564718
     0.34375000     0.02238179     0.42564718
     0.34375000     0.06084333     0.42564718
     0.34375000     0.09930487     0.42564718
     0.34375000     0.13776640     0.42564718
     0.34375000     0.17622794     0.42564718
     0.34375000     0.21468948     0.42564718
     0.34375000     0.25315102     0.42564718
     0.34375000     0.29161256     0.42564718
     0.34375000     0.33007410     0.42564718
     0.34375000     0.36853564     0.42564718
     0.34375000     0.40699717     0.42564718
     0.34375000     0.44545871     0.42564718
     0.34375000     0.48392025     0.42564718
     0.34375000     0.52238179     0.42564718
     0.34375000     0.56084333     0.42564718
     0.34375000     0.59930487     0.42564718
     0.34375000     0.63776640     0.42564718
     0.34375000     0.67622794     0.42564718
     0.34375000     0.71468948     0.42564718
     0.34375000     0.75315102     0.42564718
     0.34375000     0.79161256     0.42564718
     0.34375000     0.83007410     0.42564718
     0.34375000     0.86853564     0.42564718
     0.34375000     0.90699717     0.42564718
     0.34375000     0.94545871     0.42564718
     0.34375000     0.98392025     0.42564718
     0.36458333     0.02238179     0.42564718
     0.36458333     0.06084333     0.42564718
     0.36458333     0.09930487     0.42564718
     0.36458333     0.13776640     0.42564718
     0.36458333     0.17622794     0.42564718
     0.36458333     0.21468948     0.42564718
     0.36458333     0.25315102     0.42564718
     0.36458333     0.29161256     0.42564718
     0.36458333     0.33007410     0.42564718
     0.36458333     0.36853564     0.42564718
     0.36458333     0.40699717     0.42564718
     0.36458333     0.44545871     0.42564718
     0.36458333     0.48392025     0.42564718
     0.36458333     0.52238179     0.42564718
     0.36458333     0.56084333     0.42564718
     0.36458333     0.59930487     0.42564718
     0.36458333     0.63776640     0.42564718
     0.36458333     0.67622794     0.42564718
     0.36458333     0.71468948     0.42564718
     0.36458333     0.75315102     0.42564718
     0.36458333     0.79161256     0.42564718
     0.36458333     0.83007410     0.42564718
     0.36458333     0.86853564     0.42564718
     0.36458333     0.90699717     0.42564718
     0.36458333     0.94545871     0.42564718
     0.36458333     0.98392025     0.42564718
     0.38541667     0.02238179     0.42564718
     0.38541667     0.06084333     0.42564718
     0.38541667     0.09930487     0.42564718
     0.38541667     0.13776640     0.42564718
     0.38541667     0.17622794     0.42564718
     0.38541667     0.21468948     0.42564718
     0.38541667     0.25315102     0.42564718
     0.38541667     0.29161256     0.42564718
     0.38541667     0.33007410     0.42564718
     0.38541667     0.36853564     0.42564718
     0.38541667     0.40699717     0.42564718
     0.38541667     0.44545871     0.42564718
     0.38541667     0.48392025     0.42564718
     0.38541667     0.52238179     0.42564718
     0.38541667     0.56084333     0.42564718
     0.38541667     0.59930487     0.42564718
     0.38541667     0.63776640     0.42564718
     0.38541667     0.67622794     0.42564718
     0.38541667     0.71468948     0.42564718
     0.38541667     0.75315102     0.42564718
     0.38541667     0.79161256     0.42564718
     0.38541667     0.83007410     0.42564718
     0.38541667     0.86853564     0.42564718
     0.38541667     0.90699717     0.42564718
     0.38541667     0.94545871     0.42564718
     0.38541667     0.98392025     0.42564718
     0.40625000     0.02238179     0.42564718
     0.40625000     0.06084333     0.42564718
     0.40625000     0.09930487     0.42564718
     0.40625000     0.13776640     0.42564718
     0.40625000     0.17622794     0.42564718
     0.40625000     0.21468948     0.42564718
     0.40625000     0.25315102     0.42564718
     0.40625000     0.29161256     0.42564718
     0.40625000     0.33007410     0.42564718
     0.40625000     0.36853564     0.42564718
     0.40625000     0.40699717     0.42564718
     0.40625000     0.44545871     0.42564718
     0.40625000     0.48392025     0.42564718
     0.40625000     0.52238179     0.42564718
     0.40625000     0.56084333     0.42564718
     0.40625000     0.59930487     0.42564718
     0.40625000     0.63776640     0.42564718
     0.40625000     0.67622794     0.42564718
     0.40625000     0.71468948     0.42564718
     0.40625000     0.75315102     0.42564718
     0.40625000     0.79161256     0.42564718
     0.40625000     0.83007410     0.42564718
     0.40625000     0.86853564     0.42564718
     0.40625000     0.90699717     0.42564718
     0.40625000     0.94545871     0.42564718
     0.40625000     0.98392025     0.42564718
     0.42708333     0.02238179     0.42564718
     0.42708333     0.06084333     0.42564718
     0.42708333     0.09930487     0.42564718
     0.42708333     0.13776640     0.42564718
     0.42708333     0.17622794     0.42564718
     0.42708333     0.21468948     0.42564718
     0.42708333     0.25315102     0.42564718
     0.42708333     0.29161256     0.42564718
     0.42708333     0.33007410     0.42564718
     0.42708333     0.36853564     0.42564718
     0.42708333     0.40699717     0.42564718
     0.42708333     0.44545871     0.42564718
     0.42708333     0.48392025     0.42564718
     0.42708333     0.52238179     0.42564718
     0.42708333     0.56084333     0.42564718
     0.42708333     0.59930487     0.42564718
     0.42708333     0.63776640     0.42564718
     0.42708333     0.67622794     0.42564718
     0.42708333     0.71468948     0.42564718
     0.42708333     0.75315102     0.42564718
     0.42708333     0.79161256     0.42564718
     0.42708333     0.83007410     0.42564718
     0.42708333     0.86853564     0.42564718
     0.42708333     0.90699717     0.42564718
     0.42708333     0.94545871     0.42564718
     0.42708333     0.98392025     0.42564718
     0.44791667     0.02238179     0.42564718
     0.44791667     0.06084333     0.42564718
     0.44791667     0.09930487     0.42564718
     0.44791667     0.13776640     0.42564718
     0.44791667     0.17622794     0.42564718
     0.44791667     0.21468948     0.42564718
     0.44791667     0.25315102     0.42564718
     0.44791667     0.29161256     0.42564718
     0.44791667     0.33007410     0.42564718
     0.44791667     0.36853564     0.42564718
     0.44791667     0.40699717     0.42564718
     0.44791667     0.44545871     0.42564718
     0.44791667     0.48392025     0.42564718
     0.44791667     0.52238179     0.42564718
     0.44791667     0.56084333     0.42564718
     0.44791667     0.59930487     0.42564718
     0.44791667     0.63776640     0.42564718
     0.44791667     0.67622794     0.42564718
     0.44791667     0.71468948     0.42564718
     0.44791667     0.75315102     0.42564718
     0.44791667     0.79161256     0.42564718
     0.44791667     0.83007410     0.42564718
     0.44791667     0.86853564     0.42564718
     0.44791667     0.90699717     0.42564718
     0.44791667     0.94545871     0.42564718
     0.44791667     0.98392025     0.42564718
     0.46875000     0.02238179     0.42564718
     0.46875000     0.06084333     0.42564718
     0.46875000     0.09930487     0.42564718
     0.46875000     0.13776640     0.42564718
     0.46875000     0.17622794     0.42564718
     0.46875000     0.21468948     0.42564718
     0.46875000     0.25315102     0.42564718
     0.46875000     0.29161256     0.42564718
     0.46875000     0.33007410     0.42564718
     0.46875000     0.36853564     0.42564718
     0.46875000     0.40699717     0.42564718
     0.46875000     0.44545871     0.42564718
     0.46875000     0.48392025     0.42564718
     0.46875000     0.52238179     0.42564718
     0.46875000     0.56084333     0.42564718
     0.46875000     0.59930487     0.42564718
     0.46875000     0.63776640     0.42564718
     0.46875000     0.67622794     0.42564718
     0.46875000     0.71468948     0.42564718
     0.46875000     0.75315102     0.42564718
     0.46875000     0.79161256     0.42564718
     0.46875000     0.83007410     0.42564718
     0.46875000     0.86853564     0.42564718
     0.46875000     0.90699717     0.42564718
     0.46875000     0.94545871     0.42564718
     0.46875000     0.98392025     0.42564718
     0.48958333     0.02238179     0.42564718
     0.48958333     0.06084333     0.42564718
     0.48958333     0.09930487     0.42564718
     0.48958333     0.13776640     0.42564718
     0.48958333     0.17622794     0.42564718
     0.48958333     0.21468948     0.42564718
     0.48958333     0.25315102     0.42564718
     0.48958333     0.29161256     0.42564718
     0.48958333     0.33007410     0.42564718
     0.48958333     0.36853564     0.42564718
     0.48958333     0.40699717     0.42564718
     0.48958333     0.44545871     0.42564718
     0.48958333     0.48392025     0.42564718
     0.48958333     0.52238179     0.42564718
     0.48958333     0.56084333     0.42564718
     0.48958333     0.59930487     0.42564718
     0.48958333     0.63776640     0.42564718
     0.48958333     0.67622794     0.42564718
     0.48958333     0.71468948     0.42564718
     0.48958333     0.75315102     0.42564718
     0.48958333     0.79161256     0.42564718
     0.48958333     0.83007410     0.42564718
     0.48958333     0.86853564     0.42564718
     0.48958333     0.90699717     0.42564718
     0.48958333     0.94545871     0.42564718
     0.48958333     0.98392025     0.42564718
     0.51041667     0.02238179     0.42564718
     0.51041667     0.06084333     0.42564718
     0.51041667     0.09930487     0.42564718
     0.51041667     0.13776640     0.42564718
     0.51041667     0.17622794     0.42564718
     0.51041667     0.21468948     0.42564718
     0.51041667     0.25315102     0.42564718
     0.51041667     0.29161256     0.42564718
     0.51041667     0.33007410     0.42564718
     0.51041667     0.36853564     0.42564718
     0.51041667     0.40699717     0.42564718
     0.51041667     0.44545871     0.42564718
     0.51041667     0.48392025     0.42564718
     0.51041667     0.52238179     0.42564718
     0.51041667     0.56084333     0.42564718
     0.51041667     0.59930487     0.42564718
     0.51041667     0.63776640     0.42564718
     0.51041667     0.67622794     0.42564718
     0.51041667     0.71468948     0.42564718
     0.51041667     0.75315102     0.42564718
     0.51041667     0.79161256     0.42564718
     0.51041667     0.83007410     0.42564718
     0.51041667     0.86853564     0.42564718