Generated by Twist2D
    1.0
     105.50398832       0.00000000       0.00000000
       0.00000000      79.74875392       0.00000000
       0.00000000       0.00000000      20.00000000
    P
    4612
Direct
     0.01562500     0.03232925     0.42564718
     0.01562500     0.08788481     0.42564718
     0.01562500     0.14344036     0.42564718
     0.01562500     0.19899592     0.42564718
     0.01562500     0.25455147     0.42564718
     0.01562500     0.31010703     0.42564718
     0.01562500     0.36566258     0.42564718
     0.01562500     0.42121814     0.42564718
     0.01562500     0.47677370     0.42564718
     0.01562500     0.53232925     0.42564718
     0.01562500     0.58788481     0.42564718
     0.01562500     0.64344036     0.42564718
     0.01562500     0.69899592     0.42564718
     0.01562500     0.75455147     0.42564718
     0.01562500     0.81010703     0.42564718
     0.01562500     0.86566258     0.42564718
     0.01562500     0.92121814     0.42564718
     0.01562500     0.97677370     0.42564718
     0.04687500     0.03232925     0.42564718
     0.04687500     0.08788481     0.42564718
     0.04687500     0.14344036     0.42564718
     0.04687500     0.19899592     0.42564718
     0.04687500     0.25455147     0.42564718
     0.04687500     0.31010703     0.42564718
     0.04687500     0.36566258     0.42564718
     0.04687500     0.42121814     0.42564718
     0.04687500     0.47677370     0.42564718
     0.04687500     0.53232925     0.42564718
     0.04687500     0.58788481     0.42564718
     0.04687500     0.64344036     0.42564718
     0.04687500     0.69899592     0.42564718
     0.04687500     0.75455147     0.42564718
     0.04687500     0.81010703     0.42564718
     0.04687500     0.86566258     0.42564718
     0.04687500     0.92121814     0.42564718
     0.04687500     0.97677370     0.42564718
     0.07812500     0.03232925     0.42564718
     0.07812500     0.08788481     0.42564718
     0.07812500     0.14344036     0.42564718
     0.07812500     0.19899592     0.42564718
     0.07812500     0.25455147     0.42564718
     0.07812500     0.31010703     0.42564718
     0.07812500     0.36566258     0.42564718
     0.07812500     0.42121814     0.42564718
     0.07812500     0.47677370     0.42564718
     0.07812500     0.53232925     0.42564718
     0.07812500     0.58788481     0.42564718
     0.07812500     0.64344036     0.42564718
     0.07812500     0.69899592     0.42564718
     0.07812500     0.75455147     0.42564718
     0.07812500     0.81010703     0.42564718
     0.07812500     0.86566258     0.42564718
     0.07812500     0.92121814     0.42564718
     0.07812500     0.97677370     0.42564718
     0.10937500     0.03232925     0.42564718
     0.10937500     0.08788481     0.42564718
     0.10937500     0.14344036     0.42564718
     0.10937500     0.19899592     0.42564718
     0.10937500     0.25455147     0.42564718
     0.10937500     0.31010703     0.42564718
     0.10937500     0.36566258     0.42564718
     0.10937500     0.42121814     0.42564718
     0.10937500     0.47677370     0.42564718
     0.10937500     0.53232925     0.42564718
     0.10937500     0.58788481     0.42564718
     0.10937500     0.64344036     0.42564718
     0.10937500     0.69899592     0.42564718
     0.10937500     0.75455147     0.42564718
     0.10937500     0.81010703     0.42564718
     0.10937500     0.86566258     0.42564718
     0.10937500     0.92121814     0.42564718
     0.10937500     0.97677370     0.42564718
     0.14062500     0.03232925     0.42564718
     0.14062500     0.08788481     0.42564718
     0.14062500     0.14344036     0.42564718
     0.14062500     0.19899592     0.42564718
     0.14062500     0.25455147     0.42564718
     0.14062500     0.31010703     0.42564718
     0.14062500     0.36566258     0.42564718
     0.14062500     0.42121814     0.42564718
     0.14062500     0.47677370     0.42564718
     0.14062500     0.53232925     0.42564718
     0.14062500     0.58788481     0.42564718
     0.14062500     0.64344036     0.42564718
     0.14062500     0.69899592     0.42564718
     0.14062500     0.75455147     0.42564718
     0.14062500     0.81010703     0.42564718
     0.14062500     0.86566258     0.42564718
     0.14062500     0.92121814     0.42564718
     0.14062500     0.97677370     0.42564718
     0.17187500     0.03232925     0.42564718
     0.17187500     0.08788481     0.42564718
     0.17187500     0.14344036     0.42564718
     0.17187500     0.19899592     0.42564718
     0.17187500     0.25455147     0.42564718
     0.17187500     0.31010703     0.42564718
     0.17187500     0.36566258     0.42564718
     0.17187500     0.42121814     0.42564718
     0.17187500     0.47677370     0.42564718
     0.17187500     0.53232925     0.42564718
     0.17187500     0.58788481     0.42564718
     0.17187500     0.64344036     0.42564718
     0.17187500     0.69899592     0.42564718
     0.17187500     0.75455147     0.42564718
     0.17187500     0.81010703     0.42564718
     0.17187500     0.86566258     0.42564718
     0.17187500     0.92121814     0.42564718
     0.17187500     0.97677370     0.42564718
     0.20312500     0.03232925     0.42564718
     0.20312500     0.08788481     0.42564718
     0.20312500     0.14344036     0.42564718
     0.20312500     0.19899592     0.42564718
     0.20312500     0.25455147     0.42564718
     0.20312500     0.31010703     0.42564718
     0.20312500     0.36566258     0.42564718
     0.20312500     0.42121814     0.42564718
     0.20312500     0.47677370     0.42564718
     0.20312500     0.53232925     0.42564718
     0.20312500     0.58788481     0.42564718
     0.20312500     0.64344036     0.42564718
     0.20312500     0.69899592     0.42564718
     0.20312500     0.75455147     0.42564718
     0.20312500     0.81010703     0.42564718
     0.20312500     0.86566258     0.42564718
     0.20312500     0.92121814     0.42564718
     0.20312500     0.97677370     0.42564718
     0.23437500     0.03232925     0.42564718
     0.23437500     0.08788481     0.42564718
     0.23437500     0.14344036     0.42564718
     0.23437500     0.19899592     0.42564718
     0.23437500     0.25455147     0.42564718
     0.23437500     0.31010703     0.42564718
     0.23437500     0.36566258     0.42564718
     0.23437500     0.42121814     0.42564718
     0.23437500     0.47677370     0.42564718
     0.23437500     0.53232925     0.42564718
     0.23437500     0.58788481     0.42564718
     0.23437500     0.64344036     0.42564718
     0.23437500     0.69899592     0.42564718
     0.23437500     0.75455147     0.42564718
     0.23437500     0.81010703     0.42564718
     0.23437500     0.86566258     0.42564718
     0.23437500     0.92121814     0.42564718
     0.23437500     0.97677370     0.42564718
     0.26562500     0.03232925     0.42564718
     0.26562500     0.08788481     0.42564718
     0.26562500     0.14344036     0.42564718
     0.26562500     0.19899592     0.42564718
     0.26562500     0.25455147     0.42564718
     0.26562500     0.31010703     0.42564718
     0.26562500     0.36566258     0.42564718
     0.26562500     0.42121814     0.42564718
     0.26562500     0.47677370     0.42564718
     0.26562500     0.53232925     0.42564718
     0.26562500     0.58788481     0.42564718
     0.26562500     0.64344036     0.42564718
     0.26562500     0.69899592     0.42564718
     0.26562500     0.75455147     0.42564718
     0.26562500     0.81010703     0.42564718
     0.26562500     0.86566258     0.42564718
     0.26562500     0.92121814     0.42564718
     0.26562500     0.97677370     0.42564718
     0.29687500     0.03232925     0.42564718
     0.29687500     0.08788481     0.42564718
     0.29687500     0.14344036     0.42564718
     0.29687500     0.19899592     0.42564718
     0.29687500     0.25455147     0.42564718
     0.29687500     0.31010703     0.42564718
     0.29687500     0.36566258     0.42564718
     0.29687500     0.42121814     0.42564718
     0.29687500     0.47677370     0.42564718
     0.29687500     0.53232925     0.42564718
     0.29687500     0.58788481     0.42564718
     0.29687500     0.64344036     0.42564718
     0.29687500     0.69899592     0.42564718
     0.29687500     0.75455147     0.42564718
     0.29687500     0.81010703     0.42564718
     0.29687500     0.86566258     0.42564718
     0.29687500     0.92121814     0.42564718
     0.29687500     0.97677370     0.42564718
     0.32812500     0.03232925     0.42564718
     0.32812500     0.08788481     0.42564718
     0.32812500     0.14344036     0.42564718
     0.32812500     0.19899592     0.42564718
     0.32812500     0.25455147     0.42564718
     0.32812500     0.31010703     0.42564718
     0.32812500     0.36566258     0.42564718
     0.32812500     0.42121814     0.42564718
     0.32812500     0.47677370     0.42564718
     0.32812500     0.53232925     0.42564718
     0.32812500     0.58788481     0.42564718
     0.32812500     0.64344036     0.42564718
     0.32812500     0.69899592     0.42564718
     0.32812500     0.75455147     0.42564718
     0.32812500     0.81010703     0.42564718
     0.32812500     0.86566258     0.42564718
     0.32812500     0.92121814     0.42564718
     0.32812500     0.97677370     0.42564718
     0.35937500     0.03232925     0.42564718
     0.35937500     0.08788481     0.42564718
     0.35937500     0.14344036     0.42564718
     0.35937500     0.19899592     0.42564718
     0.35937500     0.25455147     0.42564718
     0.35937500     0.31010703     0.42564718
     0.35937500     0.36566258     0.42564718
     0.35937500     0.42121814     0.42564718
     0.35937500     0.47677370     0.42564718
     0.35937500     0.53232925     0.42564718
     0.35937500     0.58788481     0.42564718
     0.35937500     0.64344036     0.42564718
     0.35937500     0.69899592     0.42564718
     0.35937500     0.75455147     0.42564718
     0.35937500     0.81010703     0.42564718
     0.35937500     0.86566258     0.42564718
     0.35937500     0.92121814     0.42564718
     0.35937500     0.97677370     0.42564718
     0.39062500     0.03232925     0.42564718
     0.39062500     0.08788481     0.42564718
     0.39062500     0.14344036     0.42564718
     0.39062500     0.19899592     0.42564718
     0.39062500     0.25455147     0.42564718
     0.39062500     0.31010703     0.42564718
     0.39062500     0.36566258     0.42564718
     0.39062500     0.42121814     0.42564718
     0.39062500     0.47677370     0.42564718
     0.39062500     0.53232925     0.42564718
     0.39062500     0.58788481     0.42564718
     0.39062500     0.64344036     0.42564718
     0.39062500     0.69899592     0.42564718
     0.39062500     0.75455147     0.42564718
     0.39062500     0.81010703     0.42564718
     0.39062500     0.86566258     0.42564718
     0.39062500     0.92121814     0.42564718
     0.39062500     0.97677370     0.42564718
     0.42187500     0.03232925     0.42564718
     0.42187500     0.08788481     0.42564718
     0.42187500     0.14344036     0.42564718
     0.42187500     0.19899592     0.42564718
     0.42187500     0.25455147     0.42564718
     0.42187500     0.31010703     0.42564718
     0.42187500     0.36566258     0.42564718
     0.42187500     0.42121814     0.42564718
     0.42187500     0.47677370     0.42564718
     0.42187500     0.53232925     0.42564718
     0.42187500     0.58788481     0.42564718
     0.42187500     0.64344036     0.42564718
     0.42187500     0.69899592     0.42564718
     0.42187500     0.75455147     0.42564718
     0.42187500     0.81010703     0.42564718
     0.42187500     0.86566258     0.42564718
     0.42187500     0.92121814     0.42564718
     0.42187500     0.97677370     0.42564718
     0.45312500     0.03232925     0.42564718
     0.45312500     0.08788481     0.42564718
     0.45312500     0.14344036     0.42564718
     0.45312500     0.19899592     0.42564718
     0.45312500     0.25455147     0.42564718
     0.45312500     0.31010703     0.42564718
     0.45312500     0.36566258     0.42564718
     0.45312500     0.42121814     0.42564718
     0.45312500     0.47677370     0.42564718
     0.45312500     0.53232925     0.42564718
     0.45312500     0.58788481     0.42564718
     0.45312500     0.64344036     0.42564718
     0.45312500     0.69899592     0.42564718
     0.45312500     0.75455147     0.42564718
     0.45312500     0.81010703     0.42564718
     0.45312500     0.86566258     0.42564718
     0.45312500     0.92121814     0.42564718
     0.45312500     0.97677370     0.42564718
     0.48437500     0.03232925     0.42564718
     0.48437500     0.08788481     0.42564718
     0.48437500     0.14344036     0.42564718
     0.48437500     0.19899592     0.42564718
     0.48437500     0.25455147     0.42564718
     0.48437500     0.31010703     0.42564718
     0.48437500     0.36566258     0.42564718
     0.48437500     0.42121814     0.42564718
     0.48437500     0.47677370     0.42564718
     0.48437500     0.53232925     0.42564718
     0.48437500     0.58788481     0.42564718
     0.48437500     0.64344036     0.42564718
     0.48437500     0.69899592     0.42564718
     0.48437500     0.75455147     0.42564718
     0.48437500     0.81010703     0.42564718
     0.48437500     0.86566258     0.42564718
     0.48437500     0.92121814     0.42564718
     0.48437500     0.97677370     0.42564718
     0.51562500     0.03232925     0.42564718
     0.51562500     0.08788481     0.42564718
     0.51562500     0.14344036     0.42564718
     0.51562500     0.19899592     0.42564718
     0.51562500     0.25455147     0.42564718
     0.51562500     0.31010703     0.42564718
     0.51562500     0.36566258     0.42564718
     0.51562500     0.42121814     0.42564718
     0.51562500     0.47677370     0.42564718
     0.51562500     0.53232925     0.42564718
     0.51562500     0.58788481     0.42564718
     0.51562500     0.64344036     0.42564718
     0.51562500     0.69899592     0.42564718
     0.51562500     0.75455147     0.42564718
     0.51562500     0.81010703     0.42564718
     0.51562500     0.86566258     0.42564718
     0.51562500     0.92121814     0.42564718
     0.51562500     0.97677370     0.42564718
     0.54687500     0.03232925     0.42564718
     0.54687500     0.08788481     0.42564718
     0.54687500     0.14344036     0.42564718
     0.54687500     0.19899592     0.42564718
     0.54687500     0.25455147     0.42564718
     0.54687500     0.31010703     0.42564718
     0.54687500     0.36566258     0.42564718
     0.54687500     0.42121814     0.42564718
     0.54687500     0.47677370     0.42564718
     0.54687500     0.53232925     0.42564718
     0.54687500     0.58788481     0.42564718
     0.54687500     0.64344036     0.42564718
     0.54687500     0.69899592     0.42564718
     0.54687500     0.75455147     0.42564718
     0.54687500     0.81010703     0.42564718
     0.54687500     0.86566258     0.42564718
     0.54687500     0.92121814     0.42564718
     0.54687500     0.97677370     0.42564718
     0.57812500     0.03232925     0.42564718
     0.57812500     0.08788481     0.42564718
     0.57812500     0.14344036     0.42564718
     0.57812500     0.19899592     0.42564718
     0.57812500     0.25455147     0.42564718
     0.57812500     0.31010703     0.42564718
     0.57812500     0.36566258     0.42564718
     0.57812500     0.42121814     0.42564718
     0.57812500     0.47677370     0.42564718
     0.57812500     0.53232925     0.42564718
     0.57812500     0.58788481     0.42564718
     0.57812500     0.64344036     0.42564718
     0.57812500     0.69899592     0.42564718
     0.57812500     0.75455147     0.42564718
     0.57812500     0.81010703     0.42564718
     0.57812500     0.86566258     0.42564718
     0.57812500     0.92121814     0.42564718
     0.57812500     0.97677370     0.42564718
     0.60937500     0.03232925     0.42564718
     0.60937500     0.08788481     0.42564718
     0.60937500     0.14344036     0.42564718
     0.60937500     0.19899592     0.42564718
     0.60937500     0.25455147     0.42564718
     0.60937500     0.31010703     0.42564718
     0.60937500     0.36566258     0.42564718
     0.60937500     0.42121814     0.42564718
     0.60937500     0.47677370     0.42564718
     0.60937500     0.53232925     0.42564718
     0.60937500     0.58788481     0.42564718
     0.60937500     0.64344036     0.42564718
     0.60937500     0.69899592     0.42564718
     0.60937500     0.75455147     0.42564718
     0.60937500     0.81010703     0.42564718
     0.60937500     0.86566258     0.42564718
     0.60937500     0.92121814     0.42564718
     0.60937500     0.97677370     0.42564718
     0.64062500     0.03232925     0.42564718
     0.64062500     0.08788481     0.42564718
     0.64062500     0.14344036     0.42564718
     0.64062500     0.19899592     0.42564718
     0.64062500     0.25455147     0.42564718
     0.64062500     0.31010703     0.42564718
     0.64062500     0.36566258     0.42564718
     0.64062500     0.42121814     0.42564718
     0.64062500     0.47677370     0.42564718
     0.64062500     0.53232925     0.42564718
     0.64062500     0.58788481     0.42564718
     0.64062500     0.64344036     0.42564718
     0.64062500     0.69899592     0.42564718
     0.64062500     0.75455147     0.42564718
     0.64062500     0.81010703     0.42564718
     0.64062500     0.86566258     0.42564718
     0.64062500     0.92121814     0.42564718
     0.64062500     0.97677370     0.42564718
     0.67187500     0.03232925     0.42564718
     0.67187500     0.08788481     0.42564718
     0.67187500     0.14344036     0.42564718
     0.67187500     0.19899592     0.42564718
     0.67187500     0.25455147     0.42564718
     0.67187500     0.31010703     0.42564718
     0.67187500     0.36566258     0.42564718
     0.67187500     0.42121814     0.42564718
     0.67187500     0.47677370     0.42564718
     0.67187500     0.53232925     0.42564718
     0.67187500     0.58788481     0.42564718
     0.67187500     0.64344036     0.42564718
     0.67187500     0.69899592     0.42564718
     0.67187500     0.75455147     0.42564718
     0.67187500     0.81010703     0.42564718
     0.67187500     0.86566258     0.42564718
     0.67187500     0.92121814     0.42564718
     0.67187500     0.97677370     0.42564718
     0.70312500     0.03232925     0.42564718
     0.70312500     0.08788481     0.42564718
     0.70312500     0.14344036     0.42564718
     0.70312500     0.19899592     0.42564718
     0.70312500     0.25455147     0.42564718
     0.70312500     0.31010703     0.42564718
     0.70312500     0.36566258     0.42564718
     0.70312500     0.42121814     0.42564718
     0.70312500     0.47677370     0.42564718
     0.70312500     0.53232925     0.42564718
     0.70312500     0.58788481     0.42564718
     0.70312500     0.64344036     0.42564718
     0.70312500     0.69899592     0.42564718
     0.70312500     0.75455147     0.42564718
     0.70312500     0.81010703     0.42564718
     0.70312500     0.86566258     0.42564718
     0.70312500     0.92121814     0.42564718
     0.70312500     0.97677370     0.42564718
     0.73437500     0.03232925     0.42564718
     0.73437500     0.08788481     0.42564718
     0.73437500     0.14344036     0.42564718
     0.73437500     0.19899592     0.42564718
     0.73437500     0.25455147     0.42564718
     0.73437500     0.31010703     0.42564718
     0.73437500     0.36566258     0.42564718
     0.73437500     0.42121814     0.42564718
     0.73437500     0.47677370     0.42564718
     0.73437500     0.53232925     0.42564718
     0.73437500     0.58788481     0.42564718
     0.73437500     0.64344036     0.42564718
     0.73437500     0.69899592     0.42564718
     0.73437500     0.75455147     0.42564718
     0.73437500     0.81010703     0.42564718
     0.73437500     0.86566258     0.42564718
     0.73437500     0.92121814     0.42564718
     0.73437500     0.97677370     0.42564718
     0.76562500     0.03232925     0.42564718
     0.76562500     0.08788481     0.42564718
     0.76562500     0.14344036     0.42564718
     0.76562500     0.19899592     0.42564718
     0.76562500     0.25455147     0.42564718
     0.76562500     0.31010703     0.42564718
     0.76562500     0.36566258     0.42564718
     0.76562500     0.42121814     0.42564718
     0.76562500     0.47677370     0.42564718
     0.76562500     0.53232925     0.42564718
     0.76562500     0.58788481     0.42564718
     0.76562500     0.64344036     0.42564718
     0.76562500     0.69899592     0.42564718
     0.76562500     0.75455147     0.42564718
     0.76562500     0.81010703     0.42564718
     0.76562500     0.86566258     0.42564718
     0.76562500     0.92121814     0.42564718
     0.76562500     0.97677370     0.42564718
     0.79687500     0.03232925     0.42564718
     0.79687500     0.08788481     0.42564718
     0.79687500     0.14344036     0.42564718
     0.79687500     0.19899592     0.42564718
     0.79687500     0.25455147     0.42564718
     0.79687500     0.31010703     0.42564718
     0.79687500     0.36566258     0.42564718
     0.79687500     0.42121814     0.42564718
     0.79687500     0.47677370     0.42564718
     0.79687500     0.53232925     0.42564718
     0.79687500     0.58788481     0.42564718
     0.79687500     0.64344036     0.42564718
     0.79687500     0.69899592     0.42564718
     0.79687500     0.75455147     0.42564718
     0.79687500     0.81010703     0.42564718
     0.79687500     0.86566258     0.42564718
     0.79687500     0.92121814     0.42564718
     0.79687500     0.97677370     0.42564718
     0.82812500     0.03232925     0.42564718
     0.82812500     0.08788481     0.42564718
     0.82812500     0.14344036     0.42564718
     0.82812500     0.19899592     0.42564718
     0.82812500     0.25455147     0.42564718
     0.82812500     0.31010703     0.42564718
     0.82812500     0.36566258     0.42564718
     0.82812500     0.42121814     0.42564718
     0.82812500     0.47677370     0.42564718
     0.82812500     0.53232925     0.42564718
     0.82812500     0.58788481     0.42564718
     0.82812500     0.64344036     0.42564718
     0.82812500     0.69899592     0.42564718
     0.82812500     0.75455147     0.42564718
     0.82812500     0.81010703     0.42564718
     0.82812500     0.86566258     0.42564718
     0.82812500     0.92121814     0.42564718
     0.82812500     0.97677370     0.42564718
     0.85937500     0.03232925     0.42564718
     0.85937500     0.08788481     0.42564718
     0.85937500     0.14344036     0.42564718
     0.85937500     0.19899592     0.42564718
     0.85937500     0.25455147     0.42564718
     0.85937500     0.31010703     0.42564718
     0.85937500     0.36566258     0.42564718
     0.85937500     0.42121814     0.42564718
     0.85937500     0.47677370     0.42564718
     0.85937500     0.53232925     0.42564718
     0.85937500     0.58788481     0.42564718
     0.85937500     0.64344036     0.42564718
     0.85937500     0.69899592     0.42564718
     0.85937500     0.75455147     0.42564718
     0.85937500     0.81010703     0.42564718
     0.85937500     0.86566258     0.42564718
     0.85937500     0.92121814     0.42564718
     0.85937500     0.97677370     0.42564718
     0.89062500     0.03232925     0.42564718
     0.89062500     0.08788481     0.42564718
     0.89062500     0.14344036     0.42564718
     0.89062500     0.19899592     0.42564718
     0.89062500     0.25455147     0.42564718
     0.89062500     0.31010703     0.42564718
     0.89062500     0.36566258     0.42564718
     0.89062500     0.42121814     0.42564718
     0.89062500     0.47677370     0.42564718
     0.89062500     0.53232925     0.42564718
     0.89062500     0.58788481     0.42564718
     0.89062500     0.64344036     0.42564718
     0.89062500     0.69899592     0.42564718
     0.89062500     0.75455147     0.42564718
     0.89062500     0.81010703     0.42564718
     0.89062500     0.86566258     0.42564718
     0.89062500     0.92121814     0.42564718
     0.89062500     0.97677370     0.42564718
     0.92187500     0.03232925     0.42564718
     0.92187500     0.08788481     0.42564718
     0.92187500     0.14344036     0.42564718
     0.92187500     0.19899592     0.42564718
     0.92187500     0.25455147     0.42564718
     0.92187500     0.31010703     0.42564718
     0.92187500     0.36566258     0.42564718
     0.92187500     0.42121814     0.42564718
     0.92187500     0.47677370     0.42564718
     0.92187500     0.53232925     0.42564718
     0.92187500     0.58788481     0.42564718
     0.92187500     0.64344036     0.42564718
     0.92187500     0.69899592     0.42564718
     0.92187500     0.75455147     0.42564718
     0.92187500     0.81010703     0.42564718
     0.92187500     0.86566258     0.42564718
     0.92187500     0.92121814     0.42564718
     0.92187500     0.97677370     0.42564718
     0.95312500     0.03232925     0.42564718
     0.95312500     0.08788481     0.42564718
     0.95312500     0.14344036     0.42564718
     0.95312500     0.19899592     0.42564718
     0.95312500     0.25455147     0.42564718
     0.95312500     0.31010703     0.42564718
     0.95312500     0.36566258     0.42564718
     0.95312500     0.42121814     0.42564718
     0.95312500     0.47677370     0.42564718
     0.95312500     0.53232925     0.42564718
     0.95312500     0.58788481     0.42564718
     0.95312500     0.64344036     0.42564718
     0.95312500     0.69899592     0.42564718
     0.95312500     0.75455147     0.42564718
     0.95312500     0.81010703     0.42564718
     0.95312500     0.86566258     0.42564718
     0.95312500     0.92121814     0.42564718
     0.95312500     0.97677370     0.42564718
     0.98437500     0.03232925     0.42564718
     0.98437500     0.08788481     0.42564718
     0.98437500     0.14344036     0.42564718
     0.98437500     0.19899592     0.42564718
     0.98437500     0.25455147     0.42564718
     0.98437500     0.31010703     0.42564718
     0.98437500     0.36566258     0.42564718
     0.98437500     0.42121814     0.42564718
     0.98437500     0.47677370     0.42564718
     0.98437500     0.53232925     0.42564718
     0.98437500     0.58788481     0.42564718
     0.98437500     0.64344036     0.42564718
     0.98437500     0.69899592     0.42564718
     0.98437500     0.75455147     0.42564718
     0.98437500     0.81010703     0.42564718
     0.98437500     0.86566258     0.42564718
     0.98437500     0.92121814     0.42564718
     0.98437500     0.97677370     0.42564718
     0.01562500     0.02319638     0.31941913
     0.01562500     0.07875193     0.31941913
     0.01562500     0.13430749     0.31941913
     0.01562500     0.18986304     0.31941913
     0.01562500     0.24541860     0.31941913
     0.01562500     0.30097416     0.31941913
     0.01562500     0.35652971     0.31941913
     0.01562500     0.41208527     0.31941913
     0.01562500     0.46764082     0.31941913
     0.01562500     0.52319638     0.31941913
     0.01562500     0.57875193     0.31941913
     0.01562500     0.63430749     0.31941913
     0.01562500     0.68986304     0.31941913
     0.01562500     0.74541860     0.31941913
     0.01562500     0.80097416     0.31941913
     0.01562500     0.85652971     0.31941913
     0.01562500     0.91208527     0.31941913
     0.01562500     0.96764082     0.31941913
     0.04687500     0.02319638     0.31941913
     0.04687500     0.07875193     0.31941913
     0.04687500     0.13430749     0.31941913
     0.04687500     0.18986304     0.31941913
     0.04687500     0.24541860     0.31941913
     0.04687500     0.30097416     0.31941913
     0.04687500     0.35652971     0.31941913
     0.04687500     0.41208527     0.31941913
     0.04687500     0.46764082     0.31941913
     0.04687500     0.52319638     0.31941913
     0.04687500     0.57875193     0.31941913
     0.04687500     0.63430749     0.31941913
     0.04687500     0.68986304     0.31941913
     0.04687500     0.74541860     0.31941913
     0.04687500     0.80097416     0.31941913
     0.04687500     0.85652971     0.31941913
     0.04687500     0.91208527     0.31941913
     0.04687500     0.96764082     0.31941913
     0.07812500     0.02319638     0.31941913
     0.07812500     0.07875193     0.31941913
     0.07812500     0.13430749     0.31941913
     0.07812500     0.18986304     0.31941913
     0.07812500     0.24541860     0.31941913
     0.07812500     0.30097416     0.31941913
     0.07812500     0.35652971     0.31941913
     0.07812500     0.41208527     0.31941913
     0.07812500     0.46764082     0.31941913
     0.07812500     0.52319638     0.31941913
     0.07812500     0.57875193     0.31941913
     0.07812500     0.63430749     0.31941913
     0.07812500     0.68986304     0.31941913
     0.07812500     0.74541860     0.31941913
     0.07812500     0.80097416     0.31941913
     0.07812500     0.85652971     0.31941913
     0.07812500     0.91208527     0.31941913
     0.07812500     0.96764082     0.31941913
     0.10937500     0.02319638     0.31941913
     0.10937500     0.07875193     0.31941913
     0.10937500     0.13430749     0.31941913
     0.10937500     0.18986304     0.31941913
     0.10937500     0.24541860     0.31941913
     0.10937500     0.30097416     0.31941913
     0.10937500     0.35652971     0.31941913
     0.10937500     0.41208527     0.31941913
     0.10937500     0.46764082     0.31941913
     0.10937500     0.52319638     0.31941913
     0.10937500     0.57875193     0.31941913
     0.10937500     0.63430749     0.31941913
     0.10937500     0.68986304     0.31941913
     0.10937500     0.74541860     0.31941913
     0.10937500     0.80097416     0.31941913
     0.10937500     0.85652971     0.31941913
     0.10937500     0.91208527     0.31941913