Generated by Twist2D
    1.0
     121.98898649       0.00000000       0.00000000
       0.00000000      93.04021291       0.00000000
       0.00000000       0.00000000      20.00000000
    P
    6220
Direct
     0.01351351     0.02771079     0.42564718
     0.01351351     0.07532983     0.42564718
     0.01351351     0.12294888     0.42564718
     0.01351351     0.17056793     0.42564718
     0.01351351     0.21818698     0.42564718
     0.01351351     0.26580602     0.42564718
     0.01351351     0.31342507     0.42564718
     0.01351351     0.36104412     0.42564718
     0.01351351     0.40866317     0.42564718
     0.01351351     0.45628222     0.42564718
     0.01351351     0.50390126     0.42564718
     0.01351351     0.55152031     0.42564718
     0.01351351     0.59913936     0.42564718
     0.01351351     0.64675841     0.42564718
     0.01351351     0.69437745     0.42564718
     0.01351351     0.74199650     0.42564718
     0.01351351     0.78961555     0.42564718
     0.01351351     0.83723460     0.42564718
     0.01351351     0.88485364     0.42564718
     0.01351351     0.93247269     0.42564718
     0.01351351     0.98009174     0.42564718
     0.04054054     0.02771079     0.42564718
     0.04054054     0.07532983     0.42564718
     0.04054054     0.12294888     0.42564718
     0.04054054     0.17056793     0.42564718
     0.04054054     0.21818698     0.42564718
     0.04054054     0.26580602     0.42564718
     0.04054054     0.31342507     0.42564718
     0.04054054     0.36104412     0.42564718
     0.04054054     0.40866317     0.42564718
     0.04054054     0.45628222     0.42564718
     0.04054054     0.50390126     0.42564718
     0.04054054     0.55152031     0.42564718
     0.04054054     0.59913936     0.42564718
     0.04054054     0.64675841     0.42564718
     0.04054054     0.69437745     0.42564718
     0.04054054     0.74199650     0.42564718
     0.04054054     0.78961555     0.42564718
     0.04054054     0.83723460     0.42564718
     0.04054054     0.88485364     0.42564718
     0.04054054     0.93247269     0.42564718
     0.04054054     0.98009174     0.42564718
     0.06756757     0.02771079     0.42564718
     0.06756757     0.07532983     0.42564718
     0.06756757     0.12294888     0.42564718
     0.06756757     0.17056793     0.42564718
     0.06756757     0.21818698     0.42564718
     0.06756757     0.26580602     0.42564718
     0.06756757     0.31342507     0.42564718
     0.06756757     0.36104412     0.42564718
     0.06756757     0.40866317     0.42564718
     0.06756757     0.45628222     0.42564718
     0.06756757     0.50390126     0.42564718
     0.06756757     0.55152031     0.42564718
     0.06756757     0.59913936     0.42564718
     0.06756757     0.64675841     0.42564718
     0.06756757     0.69437745     0.42564718
     0.06756757     0.74199650     0.42564718
     0.06756757     0.78961555     0.42564718
     0.06756757     0.83723460     0.42564718
     0.06756757     0.88485364     0.42564718
     0.06756757     0.93247269     0.42564718
     0.06756757     0.98009174     0.42564718
     0.09459459     0.02771079     0.42564718
     0.09459459     0.07532983     0.42564718
     0.09459459     0.12294888     0.42564718
     0.09459459     0.17056793     0.42564718
     0.09459459     0.21818698     0.42564718
     0.09459459     0.26580602     0.42564718
     0.09459459     0.31342507     0.42564718
     0.09459459     0.36104412     0.42564718
     0.09459459     0.40866317     0.42564718
     0.09459459     0.45628222     0.42564718
     0.09459459     0.50390126     0.42564718
     0.09459459     0.55152031     0.42564718
     0.09459459     0.59913936     0.42564718
     0.09459459     0.64675841     0.42564718
     0.09459459     0.69437745     0.42564718
     0.09459459     0.74199650     0.42564718
     0.09459459     0.78961555     0.42564718
     0.09459459     0.83723460     0.42564718
     0.09459459     0.88485364     0.42564718
     0.09459459     0.93247269     0.42564718
     0.09459459     0.98009174     0.42564718
     0.12162162     0.02771079     0.42564718
     0.12162162     0.07532983     0.42564718
     0.12162162     0.12294888     0.42564718
     0.12162162     0.17056793     0.42564718
     0.12162162     0.21818698     0.42564718
     0.12162162     0.26580602     0.42564718
     0.12162162     0.31342507     0.42564718
     0.12162162     0.36104412     0.42564718
     0.12162162     0.40866317     0.42564718
     0.12162162     0.45628222     0.42564718
     0.12162162     0.50390126     0.42564718
     0.12162162     0.55152031     0.42564718
     0.12162162     0.59913936     0.42564718
     0.12162162     0.64675841     0.42564718
     0.12162162     0.69437745     0.42564718
     0.12162162     0.74199650     0.42564718
     0.12162162     0.78961555     0.42564718
     0.12162162     0.83723460     0.42564718
     0.12162162     0.88485364     0.42564718
     0.12162162     0.93247269     0.42564718
     0.12162162     0.98009174     0.42564718
     0.14864865     0.02771079     0.42564718
     0.14864865     0.07532983     0.42564718
     0.14864865     0.12294888     0.42564718
     0.14864865     0.17056793     0.42564718
     0.14864865     0.21818698     0.42564718
     0.14864865     0.26580602     0.42564718
     0.14864865     0.31342507     0.42564718
     0.14864865     0.36104412     0.42564718
     0.14864865     0.40866317     0.42564718
     0.14864865     0.45628222     0.42564718
     0.14864865     0.50390126     0.42564718
     0.14864865     0.55152031     0.42564718
     0.14864865     0.59913936     0.42564718
     0.14864865     0.64675841     0.42564718
     0.14864865     0.69437745     0.42564718
     0.14864865     0.74199650     0.42564718
     0.14864865     0.78961555     0.42564718
     0.14864865     0.83723460     0.42564718
     0.14864865     0.88485364     0.42564718
     0.14864865     0.93247269     0.42564718
     0.14864865     0.98009174     0.42564718
     0.17567568     0.02771079     0.42564718
     0.17567568     0.07532983     0.42564718
     0.17567568     0.12294888     0.42564718
     0.17567568     0.17056793     0.42564718
     0.17567568     0.21818698     0.42564718
     0.17567568     0.26580602     0.42564718
     0.17567568     0.31342507     0.42564718
     0.17567568     0.36104412     0.42564718
     0.17567568     0.40866317     0.42564718
     0.17567568     0.45628222     0.42564718
     0.17567568     0.50390126     0.42564718
     0.17567568     0.55152031     0.42564718
     0.17567568     0.59913936     0.42564718
     0.17567568     0.64675841     0.42564718
     0.17567568     0.69437745     0.42564718
     0.17567568     0.74199650     0.42564718
     0.17567568     0.78961555     0.42564718
     0.17567568     0.83723460     0.42564718
     0.17567568     0.88485364     0.42564718
     0.17567568     0.93247269     0.42564718
     0.17567568     0.98009174     0.42564718
     0.20270270     0.02771079     0.42564718
     0.20270270     0.07532983     0.42564718
     0.20270270     0.12294888     0.42564718
     0.20270270     0.17056793     0.42564718
     0.20270270     0.21818698     0.42564718
     0.20270270     0.26580602     0.42564718
     0.20270270     0.31342507     0.42564718
     0.20270270     0.36104412     0.42564718
     0.20270270     0.40866317     0.42564718
     0.20270270     0.45628222     0.42564718
     0.20270270     0.50390126     0.42564718
     0.20270270     0.55152031     0.42564718
     0.20270270     0.59913936     0.42564718
     0.20270270     0.64675841     0.42564718
     0.20270270     0.69437745     0.42564718
     0.20270270     0.74199650     0.42564718
     0.20270270     0.78961555     0.42564718
     0.20270270     0.83723460     0.42564718
     0.20270270     0.88485364     0.42564718
     0.20270270     0.93247269     0.42564718
     0.20270270     0.98009174     0.42564718
     0.22972973     0.02771079     0.42564718
     0.22972973     0.07532983     0.42564718
     0.22972973     0.12294888     0.42564718
     0.22972973     0.17056793     0.42564718
     0.22972973     0.21818698     0.42564718
     0.22972973     0.26580602     0.42564718
     0.22972973     0.31342507     0.42564718
     0.22972973     0.36104412     0.42564718
     0.22972973     0.40866317     0.42564718
     0.22972973     0.45628222     0.42564718
     0.22972973     0.50390126     0.42564718
     0.22972973     0.55152031     0.42564718
     0.22972973     0.59913936     0.42564718
     0.22972973     0.64675841     0.42564718
     0.22972973     0.69437745     0.42564718
     0.22972973     0.74199650     0.42564718
     0.22972973     0.78961555     0.42564718
     0.22972973     0.83723460     0.42564718
     0.22972973     0.88485364     0.42564718
     0.22972973     0.93247269     0.42564718
     0.22972973     0.98009174     0.42564718
     0.25675676     0.02771079     0.42564718
     0.25675676     0.07532983     0.42564718
     0.25675676     0.12294888     0.42564718
     0.25675676     0.17056793     0.42564718
     0.25675676     0.21818698     0.42564718
     0.25675676     0.26580602     0.42564718
     0.25675676     0.31342507     0.42564718
     0.25675676     0.36104412     0.42564718
     0.25675676     0.40866317     0.42564718
     0.25675676     0.45628222     0.42564718
     0.25675676     0.50390126     0.42564718
     0.25675676     0.55152031     0.42564718
     0.25675676     0.59913936     0.42564718
     0.25675676     0.64675841     0.42564718
     0.25675676     0.69437745     0.42564718
     0.25675676     0.74199650     0.42564718
     0.25675676     0.78961555     0.42564718
     0.25675676     0.83723460     0.42564718
     0.25675676     0.88485364     0.42564718
     0.25675676     0.93247269     0.42564718
     0.25675676     0.98009174     0.42564718
     0.28378378     0.02771079     0.42564718
     0.28378378     0.07532983     0.42564718
     0.28378378     0.12294888     0.42564718
     0.28378378     0.17056793     0.42564718
     0.28378378     0.21818698     0.42564718
     0.28378378     0.26580602     0.42564718
     0.28378378     0.31342507     0.42564718
     0.28378378     0.36104412     0.42564718
     0.28378378     0.40866317     0.42564718
     0.28378378     0.45628222     0.42564718
     0.28378378     0.50390126     0.42564718
     0.28378378     0.55152031     0.42564718
     0.28378378     0.59913936     0.42564718
     0.28378378     0.64675841     0.42564718
     0.28378378     0.69437745     0.42564718
     0.28378378     0.74199650     0.42564718
     0.28378378     0.78961555     0.42564718
     0.28378378     0.83723460     0.42564718
     0.28378378     0.88485364     0.42564718
     0.28378378     0.93247269     0.42564718
     0.28378378     0.98009174     0.42564718
     0.31081081     0.02771079     0.42564718
     0.31081081     0.07532983     0.42564718
     0.31081081     0.12294888     0.42564718
     0.31081081     0.17056793     0.42564718
     0.31081081     0.21818698     0.42564718
     0.31081081     0.26580602     0.42564718
     0.31081081     0.31342507     0.42564718
     0.31081081     0.36104412     0.42564718
     0.31081081     0.40866317     0.42564718
     0.31081081     0.45628222     0.42564718
     0.31081081     0.50390126     0.42564718
     0.31081081     0.55152031     0.42564718
     0.31081081     0.59913936     0.42564718
     0.31081081     0.64675841     0.42564718
     0.31081081     0.69437745     0.42564718
     0.31081081     0.74199650     0.42564718
     0.31081081     0.78961555     0.42564718
     0.31081081     0.83723460     0.42564718
     0.31081081     0.88485364     0.42564718
     0.31081081     0.93247269     0.42564718
     0.31081081     0.98009174     0.42564718
     0.33783784     0.02771079     0.42564718
     0.33783784     0.07532983     0.42564718
     0.33783784     0.12294888     0.42564718
     0.33783784     0.17056793     0.42564718
     0.33783784     0.21818698     0.42564718
     0.33783784     0.26580602     0.42564718
     0.33783784     0.31342507     0.42564718
     0.33783784     0.36104412     0.42564718
     0.33783784     0.40866317     0.42564718
     0.33783784     0.45628222     0.42564718
     0.33783784     0.50390126     0.42564718
     0.33783784     0.55152031     0.42564718
     0.33783784     0.59913936     0.42564718
     0.33783784     0.64675841     0.42564718
     0.33783784     0.69437745     0.42564718
     0.33783784     0.74199650     0.42564718
     0.33783784     0.78961555     0.42564718
     0.33783784     0.83723460     0.42564718
     0.33783784     0.88485364     0.42564718
     0.33783784     0.93247269     0.42564718
     0.33783784     0.98009174     0.42564718
     0.36486486     0.02771079     0.42564718
     0.36486486     0.07532983     0.42564718
     0.36486486     0.12294888     0.42564718
     0.36486486     0.17056793     0.42564718
     0.36486486     0.21818698     0.42564718
     0.36486486     0.26580602     0.42564718
     0.36486486     0.31342507     0.42564718
     0.36486486     0.36104412     0.42564718
     0.36486486     0.40866317     0.42564718
     0.36486486     0.45628222     0.42564718
     0.36486486     0.50390126     0.42564718
     0.36486486     0.55152031     0.42564718
     0.36486486     0.59913936     0.42564718
     0.36486486     0.64675841     0.42564718
     0.36486486     0.69437745     0.42564718
     0.36486486     0.74199650     0.42564718
     0.36486486     0.78961555     0.42564718
     0.36486486     0.83723460     0.42564718
     0.36486486     0.88485364     0.42564718
     0.36486486     0.93247269     0.42564718
     0.36486486     0.98009174     0.42564718
     0.39189189     0.02771079     0.42564718
     0.39189189     0.07532983     0.42564718
     0.39189189     0.12294888     0.42564718
     0.39189189     0.17056793     0.42564718
     0.39189189     0.21818698     0.42564718
     0.39189189     0.26580602     0.42564718
     0.39189189     0.31342507     0.42564718
     0.39189189     0.36104412     0.42564718
     0.39189189     0.40866317     0.42564718
     0.39189189     0.45628222     0.42564718
     0.39189189     0.50390126     0.42564718
     0.39189189     0.55152031     0.42564718
     0.39189189     0.59913936     0.42564718
     0.39189189     0.64675841     0.42564718
     0.39189189     0.69437745     0.42564718
     0.39189189     0.74199650     0.42564718
     0.39189189     0.78961555     0.42564718
     0.39189189     0.83723460     0.42564718
     0.39189189     0.88485364     0.42564718
     0.39189189     0.93247269     0.42564718
     0.39189189     0.98009174     0.42564718
     0.41891892     0.02771079     0.42564718
     0.41891892     0.07532983     0.42564718
     0.41891892     0.12294888     0.42564718
     0.41891892     0.17056793     0.42564718
     0.41891892     0.21818698     0.42564718
     0.41891892     0.26580602     0.42564718
     0.41891892     0.31342507     0.42564718
     0.41891892     0.36104412     0.42564718
     0.41891892     0.40866317     0.42564718
     0.41891892     0.45628222     0.42564718
     0.41891892     0.50390126     0.42564718
     0.41891892     0.55152031     0.42564718
     0.41891892     0.59913936     0.42564718
     0.41891892     0.64675841     0.42564718
     0.41891892     0.69437745     0.42564718
     0.41891892     0.74199650     0.42564718
     0.41891892     0.78961555     0.42564718
     0.41891892     0.83723460     0.42564718
     0.41891892     0.88485364     0.42564718
     0.41891892     0.93247269     0.42564718
     0.41891892     0.98009174     0.42564718
     0.44594595     0.02771079     0.42564718
     0.44594595     0.07532983     0.42564718
     0.44594595     0.12294888     0.42564718
     0.44594595     0.17056793     0.42564718
     0.44594595     0.21818698     0.42564718
     0.44594595     0.26580602     0.42564718
     0.44594595     0.31342507     0.42564718
     0.44594595     0.36104412     0.42564718
     0.44594595     0.40866317     0.42564718
     0.44594595     0.45628222     0.42564718
     0.44594595     0.50390126     0.42564718
     0.44594595     0.55152031     0.42564718
     0.44594595     0.59913936     0.42564718
     0.44594595     0.64675841     0.42564718
     0.44594595     0.69437745     0.42564718
     0.44594595     0.74199650     0.42564718
     0.44594595     0.78961555     0.42564718
     0.44594595     0.83723460     0.42564718
     0.44594595     0.88485364     0.42564718
     0.44594595     0.93247269     0.42564718
     0.44594595     0.98009174     0.42564718
     0.47297297     0.02771079     0.42564718
     0.47297297     0.07532983     0.42564718
     0.47297297     0.12294888     0.42564718
     0.47297297     0.17056793     0.42564718
     0.47297297     0.21818698     0.42564718
     0.47297297     0.26580602     0.42564718
     0.47297297     0.31342507     0.42564718
     0.47297297     0.36104412     0.42564718
     0.47297297     0.40866317     0.42564718
     0.47297297     0.45628222     0.42564718
     0.47297297     0.50390126     0.42564718
     0.47297297     0.55152031     0.42564718
     0.47297297     0.59913936     0.42564718
     0.47297297     0.64675841     0.42564718
     0.47297297     0.69437745     0.42564718
     0.47297297     0.74199650     0.42564718
     0.47297297     0.78961555     0.42564718
     0.47297297     0.83723460     0.42564718
     0.47297297     0.88485364     0.42564718
     0.47297297     0.93247269     0.42564718
     0.47297297     0.98009174     0.42564718
     0.50000000     0.02771079     0.42564718
     0.50000000     0.07532983     0.42564718
     0.50000000     0.12294888     0.42564718
     0.50000000     0.17056793     0.42564718
     0.50000000     0.21818698     0.42564718
     0.50000000     0.26580602     0.42564718
     0.50000000     0.31342507     0.42564718
     0.50000000     0.36104412     0.42564718
     0.50000000     0.40866317     0.42564718
     0.50000000     0.45628222     0.42564718
     0.50000000     0.50390126     0.42564718
     0.50000000     0.55152031     0.42564718
     0.50000000     0.59913936     0.42564718
     0.50000000     0.64675841     0.42564718
     0.50000000     0.69437745     0.42564718
     0.50000000     0.74199650     0.42564718
     0.50000000     0.78961555     0.42564718
     0.50000000     0.83723460     0.42564718
     0.50000000     0.88485364     0.42564718
     0.50000000     0.93247269     0.42564718
     0.50000000     0.98009174     0.42564718
     0.52702703     0.02771079     0.42564718
     0.52702703     0.07532983     0.42564718
     0.52702703     0.12294888     0.42564718
     0.52702703     0.17056793     0.42564718
     0.52702703     0.21818698     0.42564718
     0.52702703     0.26580602     0.42564718
     0.52702703     0.31342507     0.42564718
     0.52702703     0.36104412     0.42564718
     0.52702703     0.40866317     0.42564718
     0.52702703     0.45628222     0.42564718
     0.52702703     0.50390126     0.42564718
     0.52702703     0.55152031     0.42564718
     0.52702703     0.59913936     0.42564718
     0.52702703     0.64675841     0.42564718
     0.52702703     0.69437745     0.42564718
     0.52702703     0.74199650     0.42564718
     0.52702703     0.78961555     0.42564718
     0.52702703     0.83723460     0.42564718
     0.52702703     0.88485364     0.42564718
     0.52702703     0.93247269     0.42564718
     0.52702703     0.98009174     0.42564718
     0.55405405     0.02771079     0.42564718
     0.55405405     0.07532983     0.42564718
     0.55405405     0.12294888     0.42564718
     0.55405405     0.17056793     0.42564718
     0.55405405     0.21818698     0.42564718
     0.55405405     0.26580602     0.42564718
     0.55405405     0.31342507     0.42564718
     0.55405405     0.36104412     0.42564718
     0.55405405     0.40866317     0.42564718
     0.55405405     0.45628222     0.42564718
     0.55405405     0.50390126     0.42564718
     0.55405405     0.55152031     0.42564718
     0.55405405     0.59913936     0.42564718
     0.55405405     0.64675841     0.42564718
     0.55405405     0.69437745     0.42564718
     0.55405405     0.74199650     0.42564718
     0.55405405     0.78961555     0.42564718
     0.55405405     0.83723460     0.42564718
     0.55405405     0.88485364     0.42564718
     0.55405405     0.93247269     0.42564718
     0.55405405     0.98009174     0.42564718
     0.58108108     0.02771079     0.42564718
     0.58108108     0.07532983     0.42564718
     0.58108108     0.12294888     0.42564718
     0.58108108     0.17056793     0.42564718
     0.58108108     0.21818698     0.42564718
     0.58108108     0.26580602     0.42564718
     0.58108108     0.31342507     0.42564718
     0.58108108     0.36104412     0.42564718
     0.58108108     0.40866317     0.42564718
     0.58108108     0.45628222     0.42564718
     0.58108108     0.50390126     0.42564718
     0.58108108     0.55152031     0.42564718
     0.58108108     0.59913936     0.42564718
     0.58108108     0.64675841     0.42564718
     0.58108108     0.69437745     0.42564718
     0.58108108     0.74199650     0.42564718
     0.58108108     0.78961555     0.42564718
     0.58108108     0.83723460     0.42564718
     0.58108108     0.88485364     0.42564718
     0.58108108     0.93247269     0.42564718
     0.58108108     0.98009174     0.42564718
     0.60810811     0.02771079     0.42564718
     0.60810811     0.07532983     0.42564718
     0.60810811     0.12294888     0.42564718
     0.60810811     0.17056793     0.42564718
     0.60810811     0.21818698     0.42564718
     0.60810811     0.26580602     0.42564718
     0.60810811     0.31342507     0.42564718
     0.60810811     0.36104412     0.42564718
     0.60810811     0.40866317     0.42564718
     0.60810811     0.45628222     0.42564718
     0.60810811     0.50390126     0.42564718
     0.60810811     0.55152031     0.42564718
     0.60810811     0.59913936     0.42564718
     0.60810811     0.64675841     0.42564718
     0.60810811     0.69437745     0.42564718
     0.60810811     0.74199650     0.42564718
     0.60810811     0.78961555     0.42564718
     0.60810811     0.83723460     0.42564718
     0.60810811     0.88485364     0.42564718
     0.60810811     0.93247269     0.42564718
     0.60810811     0.98009174     0.42564718
     0.63513514     0.02771079     0.42564718
     0.63513514     0.07532983     0.42564718
     0.63513514     0.12294888     0.42564718
     0.63513514     0.17056793     0.42564718
     0.63513514     0.21818698     0.42564718
     0.63513514     0.26580602     0.42564718
     0.63513514     0.31342507     0.42564718
     0.63513514     0.36104412     0.42564718
     0.63513514     0.40866317     0.42564718
     0.63513514     0.45628222     0.42564718
     0.63513514     0.50390126     0.42564718
     0.63513514     0.55152031     0.42564718
     0.63513514     0.59913936     0.42564718
     0.63513514     0.64675841     0.42564718
     0.63513514     0.69437745     0.42564718
     0.63513514     0.74199650     0.42564718
     0.63513514     0.78961555     0.42564718
     0.63513514     0.83723460     0.42564718
     0.63513514     0.88485364     0.42564718
     0.63513514     0.93247269     0.42564718
     0.63513514     0.98009174     0.42564718
     0.66216216     0.02771079     0.42564718
     0.66216216     0.07532983     0.42564718
     0.66216216     0.12294888     0.42564718
     0.66216216     0.17056793     0.42564718
     0.66216216     0.21818698     0.42564718
     0.66216216     0.26580602     0.42564718
     0.66216216     0.31342507     0.42564718
     0.66216216     0.36104412     0.42564718
     0.66216216     0.40866317     0.42564718
     0.66216216     0.45628222     0.42564718
     0.66216216     0.50390126     0.42564718
     0.66216216     0.55152031     0.42564718
     0.66216216     0.59913936     0.42564718
     0.66216216     0.64675841     0.42564718
     0.66216216     0.69437745     0.42564718
     0.66216216     0.74199650     0.42564718
     0.66216216     0.78961555     0.42564718
     0.66216216     0.83723460     0.42564718
     0.66216216     0.88485364     0.42564718
     0.66216216     0.93247269     0.42564718
     0.66216216     0.98009174     0.42564718
     0.68918919     0.02771079     0.42564718
     0.68918919     0.07532983     0.42564718
     0.68918919     0.12294888     0.42564718
     0.68918919     0.17056793     0.42564718
     0.68918919     0.21818698     0.42564718
     0.68918919     0.26580602     0.42564718
     0.68918919     0.31342507     0.42564718
     0.68918919     0.36104412     0.42564718
     0.68918919     0.40866317     0.42564718
     0.68918919     0.45628222     0.42564718
     0.68918919     0.50390126     0.42564718
     0.68918919     0.55152031     0.42564718
     0.68918919     0.59913936     0.42564718
     0.68918919     0.64675841     0.42564718
     0.68918919     0.69437745     0.42564718
     0.68918919     0.74199650     0.42564718
     0.68918919     0.78961555     0.42564718
     0.68918919     0.83723460     0.42564718
     0.68918919     0.88485364     0.42564718
     0.68918919     0.93247269     0.42564718
     0.68918919     0.98009174     0.42564718
     0.71621622     0.02771079     0.42564718
     0.71621622     0.07532983     0.42564718
     0.71621622     0.12294888     0.42564718
     0.71621622     0.17056793     0.42564718
     0.71621622     0.21818698     0.42564718
     0.71621622     0.26580602     0.42564718
     0.71621622     0.31342507     0.42564718
     0.71621622     0.36104412     0.42564718
     0.71621622     0.40866317     0.42564718
     0.71621622     0.45628222     0.42564718
     0.71621622     0.50390126     0.42564718
     0.71621622     0.55152031     0.42564718
     0.71621622     0.59913936     0.42564718
     0.71621622     0.64675841     0.42564718
     0.71621622     0.69437745     0.42564718
     0.71621622     0.74199650     0.42564718
     0.71621622     0.78961555     0.42564718
     0.71621622     0.83723460     0.42564718
     0.71621622     0.88485364     0.42564718
     0.71621622     0.93247269     0.42564718
     0.71621622     0.98009174     0.42564718
     0.74324324     0.02771079     0.42564718
     0.74324324     0.07532983     0.42564718
     0.74324324     0.12294888     0.42564718
     0.74324324     0.17056793     0.42564718
     0.74324324     0.21818698     0.42564718
     0.74324324     0.26580602     0.42564718
     0.74324324     0.31342507     0.42564718
     0.74324324     0.36104412     0.42564718
     0.74324324     0.40866317     0.42564718
     0.74324324     0.45628222     0.42564718
     0.74324324     0.50390126     0.42564718
     0.74324324     0.55152031     0.42564718
     0.74324324     0.59913936     0.42564718
     0.74324324     0.64675841     0.42564718
     0.74324324     0.69437745     0.42564718
     0.74324324     0.74199650     0.42564718
     0.74324324     0.78961555     0.42564718
     0.74324324     0.83723460     0.42564718
     0.74324324     0.88485364     0.42564718
     0.74324324     0.93247269     0.42564718
     0.74324324     0.98009174     0.42564718
     0.77027027     0.02771079     0.42564718
     0.77027027     0.07532983     0.42564718
     0.77027027     0.12294888     0.42564718
     0.77027027     0.17056793     0.42564718
     0.77027027     0.21818698     0.42564718
     0.77027027     0.26580602     0.42564718
     0.77027027     0.31342507     0.42564718
     0.77027027     0.36104412     0.42564718
     0.77027027     0.40866317     0.42564718
     0.77027027     0.45628222     0.42564718
     0.77027027     0.50390126     0.42564718
     0.77027027     0.55152031     0.42564718
     0.77027027     0.59913936     0.42564718
     0.77027027     0.64675841     0.42564718
     0.77027027     0.69437745     0.42564718
     0.77027027     0.74199650     0.42564718
     0.77027027     0.78961555     0.42564718
     0.77027027     0.83723460     0.42564718
     0.77027027     0.88485364     0.42564718
     0.77027027     0.93247269     0.42564718
     0.77027027     0.98009174     0.42564718
     0.79729730     0.02771079     0.42564718
     0.79729730     0.07532983     0.42564718
     0.79729730     0.12294888     0.42564718
     0.79729730     0.17056793     0.42564718
     0.79729730     0.21818698     0.42564718
     0.79729730     0.26580602     0.42564718
     0.79729730     0.31342507     0.42564718
     0.79729730     0.36104412     0.42564718
     0.79729730     0.40866317     0.42564718
     0.79729730     0.45628222     0.42564718
     0.79729730     0.50390126     0.42564718
     0.79729730     0.55152031     0.42564718
     0.79729730     0.59913936     0.42564718
     0.79729730     0.64675841     0.42564718
     0.79729730     0.69437745     0.42564718
     0.79729730     0.74199650     0.42564718
     0.79729730     0.78961555     0.42564718
     0.79729730     0.83723460     0.42564718
     0.79729730     0.88485364     0.42564718
     0.79729730     0.93247269     0.42564718
     0.79729730     0.98009174     0.42564718
     0.82432432     0.02771079     0.42564718
     0.82432432     0.07532983     0.42564718
     0.82432432     0.12294888     0.42564718
     0.82432432     0.17056793     0.42564718
     0.82432432     0.21818698     0.42564718
     0.82432432     0.26580602     0.42564718
     0.82432432     0.31342507     0.42564718
     0.82432432     0.36104412     0.42564718
     0.82432432     0.40866317     0.42564718
     0.82432432     0.45628222     0.42564718
     0.82432432     0.50390126     0.42564718
     0.82432432     0.55152031     0.42564718
     0.82432432     0.59913936     0.42564718
     0.82432432     0.64675841     0.42564718
     0.82432432     0.69437745     0.42564718
     0.82432432     0.74199650     0.42564718
     0.82432432     0.78961555     0.42564718