Generated by Twist2D
    1.0
     168.14698138       0.00000000       0.00000000
       0.00000000     128.48410354       0.00000000
       0.00000000       0.00000000      20.00000000
    P
    11836
Direct
     0.00980392     0.02006643     0.42564718
     0.00980392     0.05454919     0.42564718
     0.00980392     0.08903195     0.42564718
     0.00980392     0.12351471     0.42564718
     0.00980392     0.15799747     0.42564718
     0.00980392     0.19248022     0.42564718
     0.00980392     0.22696298     0.42564718
     0.00980392     0.26144574     0.42564718
     0.00980392     0.29592850     0.42564718
     0.00980392     0.33041126     0.42564718
     0.00980392     0.36489402     0.42564718
     0.00980392     0.39937678     0.42564718
     0.00980392     0.43385954     0.42564718
     0.00980392     0.46834229     0.42564718
     0.00980392     0.50282505     0.42564718
     0.00980392     0.53730781     0.42564718
     0.00980392     0.57179057     0.42564718
     0.00980392     0.60627333     0.42564718
     0.00980392     0.64075609     0.42564718
     0.00980392     0.67523885     0.42564718
     0.00980392     0.70972160     0.42564718
     0.00980392     0.74420436     0.42564718
     0.00980392     0.77868712     0.42564718
     0.00980392     0.81316988     0.42564718
     0.00980392     0.84765264     0.42564718
     0.00980392     0.88213540     0.42564718
     0.00980392     0.91661816     0.42564718
     0.00980392     0.95110091     0.42564718
     0.00980392     0.98558367     0.42564718
     0.02941176     0.02006643     0.42564718
     0.02941176     0.05454919     0.42564718
     0.02941176     0.08903195     0.42564718
     0.02941176     0.12351471     0.42564718
     0.02941176     0.15799747     0.42564718
     0.02941176     0.19248022     0.42564718
     0.02941176     0.22696298     0.42564718
     0.02941176     0.26144574     0.42564718
     0.02941176     0.29592850     0.42564718
     0.02941176     0.33041126     0.42564718
     0.02941176     0.36489402     0.42564718
     0.02941176     0.39937678     0.42564718
     0.02941176     0.43385954     0.42564718
     0.02941176     0.46834229     0.42564718
     0.02941176     0.50282505     0.42564718
     0.02941176     0.53730781     0.42564718
     0.02941176     0.57179057     0.42564718
     0.02941176     0.60627333     0.42564718
     0.02941176     0.64075609     0.42564718
     0.02941176     0.67523885     0.42564718
     0.02941176     0.70972160     0.42564718
     0.02941176     0.74420436     0.42564718
     0.02941176     0.77868712     0.42564718
     0.02941176     0.81316988     0.42564718
     0.02941176     0.84765264     0.42564718
     0.02941176     0.88213540     0.42564718
     0.02941176     0.91661816     0.42564718
     0.02941176     0.95110091     0.42564718
     0.02941176     0.98558367     0.42564718
     0.04901961     0.02006643     0.42564718
     0.04901961     0.05454919     0.42564718
     0.04901961     0.08903195     0.42564718
     0.04901961     0.12351471     0.42564718
     0.04901961     0.15799747     0.42564718
     0.04901961     0.19248022     0.42564718
     0.04901961     0.22696298     0.42564718
     0.04901961     0.26144574     0.42564718
     0.04901961     0.29592850     0.42564718
     0.04901961     0.33041126     0.42564718
     0.04901961     0.36489402     0.42564718
     0.04901961     0.39937678     0.42564718
     0.04901961     0.43385954     0.42564718
     0.04901961     0.46834229     0.42564718
     0.04901961     0.50282505     0.42564718
     0.04901961     0.53730781     0.42564718
     0.04901961     0.57179057     0.42564718
     0.04901961     0.60627333     0.42564718
     0.04901961     0.64075609     0.42564718
     0.04901961     0.67523885     0.42564718
     0.04901961     0.70972160     0.42564718
     0.04901961     0.74420436     0.42564718
     0.04901961     0.77868712     0.42564718
     0.04901961     0.81316988     0.42564718
     0.04901961     0.84765264     0.42564718
     0.04901961     0.88213540     0.42564718
     0.04901961     0.91661816     0.42564718
     0.04901961     0.95110091     0.42564718
     0.04901961     0.98558367     0.42564718
     0.06862745     0.02006643     0.42564718
     0.06862745     0.05454919     0.42564718
     0.06862745     0.08903195     0.42564718
     0.06862745     0.12351471     0.42564718
     0.06862745     0.15799747     0.42564718
     0.06862745     0.19248022     0.42564718
     0.06862745     0.22696298     0.42564718
     0.06862745     0.26144574     0.42564718
     0.06862745     0.29592850     0.42564718
     0.06862745     0.33041126     0.42564718
     0.06862745     0.36489402     0.42564718
     0.06862745     0.39937678     0.42564718
     0.06862745     0.43385954     0.42564718
     0.06862745     0.46834229     0.42564718
     0.06862745     0.50282505     0.42564718
     0.06862745     0.53730781     0.42564718
     0.06862745     0.57179057     0.42564718
     0.06862745     0.60627333     0.42564718
     0.06862745     0.64075609     0.42564718
     0.06862745     0.67523885     0.42564718
     0.06862745     0.70972160     0.42564718
     0.06862745     0.74420436     0.42564718
     0.06862745     0.77868712     0.42564718
     0.06862745     0.81316988     0.42564718
     0.06862745     0.84765264     0.42564718
     0.06862745     0.88213540     0.42564718
     0.06862745     0.91661816     0.42564718
     0.06862745     0.95110091     0.42564718
     0.06862745     0.98558367     0.42564718
     0.08823529     0.02006643     0.42564718
     0.08823529     0.05454919     0.42564718
     0.08823529     0.08903195     0.42564718
     0.08823529     0.12351471     0.42564718
     0.08823529     0.15799747     0.42564718
     0.08823529     0.19248022     0.42564718
     0.08823529     0.22696298     0.42564718
     0.08823529     0.26144574     0.42564718
     0.08823529     0.29592850     0.42564718
     0.08823529     0.33041126     0.42564718
     0.08823529     0.36489402     0.42564718
     0.08823529     0.39937678     0.42564718
     0.08823529     0.43385954     0.42564718
     0.08823529     0.46834229     0.42564718
     0.08823529     0.50282505     0.42564718
     0.08823529     0.53730781     0.42564718
     0.08823529     0.57179057     0.42564718
     0.08823529     0.60627333     0.42564718
     0.08823529     0.64075609     0.42564718
     0.08823529     0.67523885     0.42564718
     0.08823529     0.70972160     0.42564718
     0.08823529     0.74420436     0.42564718
     0.08823529     0.77868712     0.42564718
     0.08823529     0.81316988     0.42564718
     0.08823529     0.84765264     0.42564718
     0.08823529     0.88213540     0.42564718
     0.08823529     0.91661816     0.42564718
     0.08823529     0.95110091     0.42564718
     0.08823529     0.98558367     0.42564718
     0.10784314     0.02006643     0.42564718
     0.10784314     0.05454919     0.42564718
     0.10784314     0.08903195     0.42564718
     0.10784314     0.12351471     0.42564718
     0.10784314     0.15799747     0.42564718
     0.10784314     0.19248022     0.42564718
     0.10784314     0.22696298     0.42564718
     0.10784314     0.26144574     0.42564718
     0.10784314     0.29592850     0.42564718
     0.10784314     0.33041126     0.42564718
     0.10784314     0.36489402     0.42564718
     0.10784314     0.39937678     0.42564718
     0.10784314     0.43385954     0.42564718
     0.10784314     0.46834229     0.42564718
     0.10784314     0.50282505     0.42564718
     0.10784314     0.53730781     0.42564718
     0.10784314     0.57179057     0.42564718
     0.10784314     0.60627333     0.42564718
     0.10784314     0.64075609     0.42564718
     0.10784314     0.67523885     0.42564718
     0.10784314     0.70972160     0.42564718
     0.10784314     0.74420436     0.42564718
     0.10784314     0.77868712     0.42564718
     0.10784314     0.81316988     0.42564718
     0.10784314     0.84765264     0.42564718
     0.10784314     0.88213540     0.42564718
     0.10784314     0.91661816     0.42564718
     0.10784314     0.95110091     0.42564718
     0.10784314     0.98558367     0.42564718
     0.12745098     0.02006643     0.42564718
     0.12745098     0.05454919     0.42564718
     0.12745098     0.08903195     0.42564718
     0.12745098     0.12351471     0.42564718
     0.12745098     0.15799747     0.42564718
     0.12745098     0.19248022     0.42564718
     0.12745098     0.22696298     0.42564718
     0.12745098     0.26144574     0.42564718
     0.12745098     0.29592850     0.42564718
     0.12745098     0.33041126     0.42564718
     0.12745098     0.36489402     0.42564718
     0.12745098     0.39937678     0.42564718
     0.12745098     0.43385954     0.42564718
     0.12745098     0.46834229     0.42564718
     0.12745098     0.50282505     0.42564718
     0.12745098     0.53730781     0.42564718
     0.12745098     0.57179057     0.42564718
     0.12745098     0.60627333     0.42564718
     0.12745098     0.64075609     0.42564718
     0.12745098     0.67523885     0.42564718
     0.12745098     0.70972160     0.42564718
     0.12745098     0.74420436     0.42564718
     0.12745098     0.77868712     0.42564718
     0.12745098     0.81316988     0.42564718
     0.12745098     0.84765264     0.42564718
     0.12745098     0.88213540     0.42564718
     0.12745098     0.91661816     0.42564718
     0.12745098     0.95110091     0.42564718
     0.12745098     0.98558367     0.42564718
     0.14705882     0.02006643     0.42564718
     0.14705882     0.05454919     0.42564718
     0.14705882     0.08903195     0.42564718
     0.14705882     0.12351471     0.42564718
     0.14705882     0.15799747     0.42564718
     0.14705882     0.19248022     0.42564718
     0.14705882     0.22696298     0.42564718
     0.14705882     0.26144574     0.42564718
     0.14705882     0.29592850     0.42564718
     0.14705882     0.33041126     0.42564718
     0.14705882     0.36489402     0.42564718
     0.14705882     0.39937678     0.42564718
     0.14705882     0.43385954     0.42564718
     0.14705882     0.46834229     0.42564718
     0.14705882     0.50282505     0.42564718
     0.14705882     0.53730781     0.42564718
     0.14705882     0.57179057     0.42564718
     0.14705882     0.60627333     0.42564718
     0.14705882     0.64075609     0.42564718
     0.14705882     0.67523885     0.42564718
     0.14705882     0.70972160     0.42564718
     0.14705882     0.74420436     0.42564718
     0.14705882     0.77868712     0.42564718
     0.14705882     0.81316988     0.42564718
     0.14705882     0.84765264     0.42564718
     0.14705882     0.88213540     0.42564718
     0.14705882     0.91661816     0.42564718
     0.14705882     0.95110091     0.42564718
     0.14705882     0.98558367     0.42564718
     0.16666667     0.02006643     0.42564718
     0.16666667     0.05454919     0.42564718
     0.16666667     0.08903195     0.42564718
     0.16666667     0.12351471     0.42564718
     0.16666667     0.15799747     0.42564718
     0.16666667     0.19248022     0.42564718
     0.16666667     0.22696298     0.42564718
     0.16666667     0.26144574     0.42564718
     0.16666667     0.29592850     0.42564718
     0.16666667     0.33041126     0.42564718
     0.16666667     0.36489402     0.42564718
     0.16666667     0.39937678     0.42564718
     0.16666667     0.43385954     0.42564718
     0.16666667     0.46834229     0.42564718
     0.16666667     0.50282505     0.42564718
     0.16666667     0.53730781     0.42564718
     0.16666667     0.57179057     0.42564718
     0.16666667     0.60627333     0.42564718
     0.16666667     0.64075609     0.42564718
     0.16666667     0.67523885     0.42564718
     0.16666667     0.70972160     0.42564718
     0.16666667     0.74420436     0.42564718
     0.16666667     0.77868712     0.42564718
     0.16666667     0.81316988     0.42564718
     0.16666667     0.84765264     0.42564718
     0.16666667     0.88213540     0.42564718
     0.16666667     0.91661816     0.42564718
     0.16666667     0.95110091     0.42564718
     0.16666667     0.98558367     0.42564718
     0.18627451     0.02006643     0.42564718
     0.18627451     0.05454919     0.42564718
     0.18627451     0.08903195     0.42564718
     0.18627451     0.12351471     0.42564718
     0.18627451     0.15799747     0.42564718
     0.18627451     0.19248022     0.42564718
     0.18627451     0.22696298     0.42564718
     0.18627451     0.26144574     0.42564718
     0.18627451     0.29592850     0.42564718
     0.18627451     0.33041126     0.42564718
     0.18627451     0.36489402     0.42564718
     0.18627451     0.39937678     0.42564718
     0.18627451     0.43385954     0.42564718
     0.18627451     0.46834229     0.42564718
     0.18627451     0.50282505     0.42564718
     0.18627451     0.53730781     0.42564718
     0.18627451     0.57179057     0.42564718
     0.18627451     0.60627333     0.42564718
     0.18627451     0.64075609     0.42564718
     0.18627451     0.67523885     0.42564718
     0.18627451     0.70972160     0.42564718
     0.18627451     0.74420436     0.42564718
     0.18627451     0.77868712     0.42564718
     0.18627451     0.81316988     0.42564718
     0.18627451     0.84765264     0.42564718
     0.18627451     0.88213540     0.42564718
     0.18627451     0.91661816     0.42564718
     0.18627451     0.95110091     0.42564718
     0.18627451     0.98558367     0.42564718
     0.20588235     0.02006643     0.42564718
     0.20588235     0.05454919     0.42564718
     0.20588235     0.08903195     0.42564718
     0.20588235     0.12351471     0.42564718
     0.20588235     0.15799747     0.42564718
     0.20588235     0.19248022     0.42564718
     0.20588235     0.22696298     0.42564718
     0.20588235     0.26144574     0.42564718
     0.20588235     0.29592850     0.42564718
     0.20588235     0.33041126     0.42564718
     0.20588235     0.36489402     0.42564718
     0.20588235     0.39937678     0.42564718
     0.20588235     0.43385954     0.42564718
     0.20588235     0.46834229     0.42564718
     0.20588235     0.50282505     0.42564718
     0.20588235     0.53730781     0.42564718
     0.20588235     0.57179057     0.42564718
     0.20588235     0.60627333     0.42564718
     0.20588235     0.64075609     0.42564718
     0.20588235     0.67523885     0.42564718
     0.20588235     0.70972160     0.42564718
     0.20588235     0.74420436     0.42564718
     0.20588235     0.77868712     0.42564718
     0.20588235     0.81316988     0.42564718
     0.20588235     0.84765264     0.42564718
     0.20588235     0.88213540     0.42564718
     0.20588235     0.91661816     0.42564718
     0.20588235     0.95110091     0.42564718
     0.20588235     0.98558367     0.42564718
     0.22549020     0.02006643     0.42564718
     0.22549020     0.05454919     0.42564718
     0.22549020     0.08903195     0.42564718
     0.22549020     0.12351471     0.42564718
     0.22549020     0.15799747     0.42564718
     0.22549020     0.19248022     0.42564718
     0.22549020     0.22696298     0.42564718
     0.22549020     0.26144574     0.42564718
     0.22549020     0.29592850     0.42564718
     0.22549020     0.33041126     0.42564718
     0.22549020     0.36489402     0.42564718
     0.22549020     0.39937678     0.42564718
     0.22549020     0.43385954     0.42564718
     0.22549020     0.46834229     0.42564718
     0.22549020     0.50282505     0.42564718
     0.22549020     0.53730781     0.42564718
     0.22549020     0.57179057     0.42564718
     0.22549020     0.60627333     0.42564718
     0.22549020     0.64075609     0.42564718
     0.22549020     0.67523885     0.42564718
     0.22549020     0.70972160     0.42564718
     0.22549020     0.74420436     0.42564718
     0.22549020     0.77868712     0.42564718
     0.22549020     0.81316988     0.42564718
     0.22549020     0.84765264     0.42564718
     0.22549020     0.88213540     0.42564718
     0.22549020     0.91661816     0.42564718
     0.22549020     0.95110091     0.42564718
     0.22549020     0.98558367     0.42564718
     0.24509804     0.02006643     0.42564718
     0.24509804     0.05454919     0.42564718
     0.24509804     0.08903195     0.42564718
     0.24509804     0.12351471     0.42564718
     0.24509804     0.15799747     0.42564718
     0.24509804     0.19248022     0.42564718
     0.24509804     0.22696298     0.42564718
     0.24509804     0.26144574     0.42564718
     0.24509804     0.29592850     0.42564718
     0.24509804     0.33041126     0.42564718
     0.24509804     0.36489402     0.42564718
     0.24509804     0.39937678     0.42564718
     0.24509804     0.43385954     0.42564718
     0.24509804     0.46834229     0.42564718
     0.24509804     0.50282505     0.42564718
     0.24509804     0.53730781     0.42564718
     0.24509804     0.57179057     0.42564718
     0.24509804     0.60627333     0.42564718
     0.24509804     0.64075609     0.42564718
     0.24509804     0.67523885     0.42564718
     0.24509804     0.70972160     0.42564718
     0.24509804     0.74420436     0.42564718
     0.24509804     0.77868712     0.42564718
     0.24509804     0.81316988     0.42564718
     0.24509804     0.84765264     0.42564718
     0.24509804     0.88213540     0.42564718
     0.24509804     0.91661816     0.42564718
     0.24509804     0.95110091     0.42564718
     0.24509804     0.98558367     0.42564718
     0.26470588     0.02006643     0.42564718
     0.26470588     0.05454919     0.42564718
     0.26470588     0.08903195     0.42564718
     0.26470588     0.12351471     0.42564718
     0.26470588     0.15799747     0.42564718
     0.26470588     0.19248022     0.42564718
     0.26470588     0.22696298     0.42564718
     0.26470588     0.26144574     0.42564718
     0.26470588     0.29592850     0.42564718
     0.26470588     0.33041126     0.42564718
     0.26470588     0.36489402     0.42564718
     0.26470588     0.39937678     0.42564718
     0.26470588     0.43385954     0.42564718
     0.26470588     0.46834229     0.42564718
     0.26470588     0.50282505     0.42564718
     0.26470588     0.53730781     0.42564718
     0.26470588     0.57179057     0.42564718
     0.26470588     0.60627333     0.42564718
     0.26470588     0.64075609     0.42564718
     0.26470588     0.67523885     0.42564718
     0.26470588     0.70972160     0.42564718
     0.26470588     0.74420436     0.42564718
     0.26470588     0.77868712     0.42564718
     0.26470588     0.81316988     0.42564718
     0.26470588     0.84765264     0.42564718
     0.26470588     0.88213540     0.42564718
     0.26470588     0.91661816     0.42564718
     0.26470588     0.95110091     0.42564718
     0.26470588     0.98558367     0.42564718
     0.28431373     0.02006643     0.42564718
     0.28431373     0.05454919     0.42564718
     0.28431373     0.08903195     0.42564718
     0.28431373     0.12351471     0.42564718
     0.28431373     0.15799747     0.42564718
     0.28431373     0.19248022     0.42564718
     0.28431373     0.22696298     0.42564718
     0.28431373     0.26144574     0.42564718
     0.28431373     0.29592850     0.42564718
     0.28431373     0.33041126     0.42564718
     0.28431373     0.36489402     0.42564718
     0.28431373     0.39937678     0.42564718
     0.28431373     0.43385954     0.42564718
     0.28431373     0.46834229     0.42564718
     0.28431373     0.50282505     0.42564718
     0.28431373     0.53730781     0.42564718
     0.28431373     0.57179057     0.42564718
     0.28431373     0.60627333     0.42564718
     0.28431373     0.64075609     0.42564718
     0.28431373     0.67523885     0.42564718
     0.28431373     0.70972160     0.42564718
     0.28431373     0.74420436     0.42564718
     0.28431373     0.77868712     0.42564718
     0.28431373     0.81316988     0.42564718
     0.28431373     0.84765264     0.42564718
     0.28431373     0.88213540     0.42564718
     0.28431373     0.91661816     0.42564718
     0.28431373     0.95110091     0.42564718
     0.28431373     0.98558367     0.42564718
     0.30392157     0.02006643     0.42564718
     0.30392157     0.05454919     0.42564718
     0.30392157     0.08903195     0.42564718
     0.30392157     0.12351471     0.42564718
     0.30392157     0.15799747     0.42564718
     0.30392157     0.19248022     0.42564718
     0.30392157     0.22696298     0.42564718
     0.30392157     0.26144574     0.42564718
     0.30392157     0.29592850     0.42564718
     0.30392157     0.33041126     0.42564718
     0.30392157     0.36489402     0.42564718
     0.30392157     0.39937678     0.42564718
     0.30392157     0.43385954     0.42564718
     0.30392157     0.46834229     0.42564718
     0.30392157     0.50282505     0.42564718
     0.30392157     0.53730781     0.42564718
     0.30392157     0.57179057     0.42564718
     0.30392157     0.60627333     0.42564718
     0.30392157     0.64075609     0.42564718
     0.30392157     0.67523885     0.42564718
     0.30392157     0.70972160     0.42564718
     0.30392157     0.74420436     0.42564718
     0.30392157     0.77868712     0.42564718
     0.30392157     0.81316988     0.42564718
     0.30392157     0.84765264     0.42564718
     0.30392157     0.88213540     0.42564718
     0.30392157     0.91661816     0.42564718
     0.30392157     0.95110091     0.42564718
     0.30392157     0.98558367     0.42564718
     0.32352941     0.02006643     0.42564718
     0.32352941     0.05454919     0.42564718
     0.32352941     0.08903195     0.42564718
     0.32352941     0.12351471     0.42564718
     0.32352941     0.15799747     0.42564718
     0.32352941     0.19248022     0.42564718
     0.32352941     0.22696298     0.42564718
     0.32352941     0.26144574     0.42564718
     0.32352941     0.29592850     0.42564718
     0.32352941     0.33041126     0.42564718
     0.32352941     0.36489402     0.42564718
     0.32352941     0.39937678     0.42564718
     0.32352941     0.43385954     0.42564718
     0.32352941     0.46834229     0.42564718
     0.32352941     0.50282505     0.42564718
     0.32352941     0.53730781     0.42564718
     0.32352941     0.57179057     0.42564718
     0.32352941     0.60627333     0.42564718
     0.32352941     0.64075609     0.42564718
     0.32352941     0.67523885     0.42564718
     0.32352941     0.70972160     0.42564718
     0.32352941     0.74420436     0.42564718
     0.32352941     0.77868712     0.42564718
     0.32352941     0.81316988     0.42564718
     0.32352941     0.84765264     0.42564718
     0.32352941     0.88213540     0.42564718
     0.32352941     0.91661816     0.42564718
     0.32352941     0.95110091     0.42564718
     0.32352941     0.98558367     0.42564718
     0.34313725     0.02006643     0.42564718
     0.34313725     0.05454919     0.42564718
     0.34313725     0.08903195     0.42564718
     0.34313725     0.12351471     0.42564718
     0.34313725     0.15799747     0.42564718
     0.34313725     0.19248022     0.42564718
     0.34313725     0.22696298     0.42564718
     0.34313725     0.26144574     0.42564718
     0.34313725     0.29592850     0.42564718
     0.34313725     0.33041126     0.42564718
     0.34313725     0.36489402     0.42564718
     0.34313725     0.39937678     0.42564718
     0.34313725     0.43385954     0.42564718
     0.34313725     0.46834229     0.42564718
     0.34313725     0.50282505     0.42564718
     0.34313725     0.53730781     0.42564718
     0.34313725     0.57179057     0.42564718
     0.34313725     0.60627333     0.42564718
     0.34313725     0.64075609     0.42564718
     0.34313725     0.67523885     0.42564718
     0.34313725     0.70972160     0.42564718
     0.34313725     0.74420436     0.42564718
     0.34313725     0.77868712     0.42564718
     0.34313725     0.81316988     0.42564718
     0.34313725     0.84765264     0.42564718
     0.34313725     0.88213540     0.42564718
     0.34313725     0.91661816     0.42564718
     0.34313725     0.95110091     0.42564718
     0.34313725     0.98558367     0.42564718
     0.36274510     0.02006643     0.42564718
     0.36274510     0.05454919     0.42564718
     0.36274510     0.08903195     0.42564718
     0.36274510     0.12351471     0.42564718
     0.36274510     0.15799747     0.42564718
     0.36274510     0.19248022     0.42564718
     0.36274510     0.22696298     0.42564718
     0.36274510     0.26144574     0.42564718
     0.36274510     0.29592850     0.42564718
     0.36274510     0.33041126     0.42564718
     0.36274510     0.36489402     0.42564718
     0.36274510     0.39937678     0.42564718
     0.36274510     0.43385954     0.42564718
     0.36274510     0.46834229     0.42564718
     0.36274510     0.50282505     0.42564718
     0.36274510     0.53730781     0.42564718
     0.36274510     0.57179057     0.42564718
     0.36274510     0.60627333     0.42564718
     0.36274510     0.64075609     0.42564718
     0.36274510     0.67523885     0.42564718
     0.36274510     0.70972160     0.42564718
     0.36274510     0.74420436     0.42564718
     0.36274510     0.77868712     0.42564718
     0.36274510     0.81316988     0.42564718
     0.36274510     0.84765264     0.42564718
     0.36274510     0.88213540     0.42564718
     0.36274510     0.91661816     0.42564718
     0.36274510     0.95110091     0.42564718
     0.36274510     0.98558367     0.42564718
     0.38235294     0.02006643     0.42564718
     0.38235294     0.05454919     0.42564718
     0.38235294     0.08903195     0.42564718
     0.38235294     0.12351471     0.42564718
     0.38235294     0.15799747     0.42564718
     0.38235294     0.19248022     0.42564718
     0.38235294     0.22696298     0.42564718
     0.38235294     0.26144574     0.42564718
     0.38235294     0.29592850     0.42564718
     0.38235294     0.33041126     0.42564718
     0.38235294     0.36489402     0.42564718
     0.38235294     0.39937678     0.42564718
     0.38235294     0.43385954     0.42564718
     0.38235294     0.46834229     0.42564718
     0.38235294     0.50282505     0.42564718
     0.38235294     0.53730781     0.42564718
     0.38235294     0.57179057     0.42564718
     0.38235294     0.60627333     0.42564718
     0.38235294     0.64075609     0.42564718
     0.38235294     0.67523885     0.42564718
     0.38235294     0.70972160     0.42564718
     0.38235294     0.74420436     0.42564718
     0.38235294     0.77868712     0.42564718
     0.38235294     0.81316988     0.42564718
     0.38235294     0.84765264     0.42564718
     0.38235294     0.88213540     0.42564718
     0.38235294     0.91661816     0.42564718
     0.38235294     0.95110091     0.42564718
     0.38235294     0.98558367     0.42564718
     0.40196078     0.02006643     0.42564718
     0.40196078     0.05454919     0.42564718
     0.40196078     0.08903195     0.42564718
     0.40196078     0.12351471     0.42564718
     0.40196078     0.15799747     0.42564718
     0.40196078     0.19248022     0.42564718
     0.40196078     0.22696298     0.42564718
     0.40196078     0.26144574     0.42564718
     0.40196078     0.29592850     0.42564718
     0.40196078     0.33041126     0.42564718
     0.40196078     0.36489402     0.42564718
     0.40196078     0.39937678     0.42564718
     0.40196078     0.43385954     0.42564718
     0.40196078     0.46834229     0.42564718
     0.40196078     0.50282505     0.42564718
     0.40196078     0.53730781     0.42564718
     0.40196078     0.57179057     0.42564718
     0.40196078     0.60627333     0.42564718
     0.40196078     0.64075609     0.42564718
     0.40196078     0.67523885     0.42564718
     0.40196078     0.70972160     0.42564718
     0.40196078     0.74420436     0.42564718
     0.40196078     0.77868712     0.42564718
     0.40196078     0.81316988     0.42564718
     0.40196078     0.84765264     0.42564718
     0.40196078     0.88213540     0.42564718
     0.40196078     0.91661816     0.42564718
     0.40196078     0.95110091     0.42564718
     0.40196078     0.98558367     0.42564718
     0.42156863     0.02006643     0.42564718
     0.42156863     0.05454919     0.42564718
     0.42156863     0.08903195     0.42564718
     0.42156863     0.12351471     0.42564718
     0.42156863     0.15799747     0.42564718
     0.42156863     0.19248022     0.42564718
     0.42156863     0.22696298     0.42564718
     0.42156863     0.26144574     0.42564718
     0.42156863     0.29592850     0.42564718
     0.42156863     0.33041126     0.42564718
     0.42156863     0.36489402     0.42564718
     0.42156863     0.39937678     0.42564718
     0.42156863     0.43385954     0.42564718
     0.42156863     0.46834229     0.42564718
     0.42156863     0.50282505     0.42564718
     0.42156863     0.53730781     0.42564718
     0.42156863     0.57179057     0.42564718
     0.42156863     0.60627333     0.42564718
     0.42156863     0.64075609     0.42564718
     0.42156863     0.67523885     0.42564718
     0.42156863     0.70972160     0.42564718
     0.42156863     0.74420436     0.42564718
     0.42156863     0.77868712     0.42564718
     0.42156863     0.81316988     0.42564718
     0.42156863     0.84765264     0.42564718
     0.42156863     0.88213540     0.42564718
     0.42156863     0.91661816     0.42564718
     0.42156863     0.95110091     0.42564718
     0.42156863     0.98558367     0.42564718
     0.44117647     0.02006643     0.42564718
     0.44117647     0.05454919     0.42564718
     0.44117647     0.08903195     0.42564718
     0.44117647     0.12351471     0.42564718
     0.44117647     0.15799747     0.42564718
     0.44117647     0.19248022     0.42564718
     0.44117647     0.22696298     0.42564718
     0.44117647     0.26144574     0.42564718
     0.44117647     0.29592850     0.42564718