Generated by Twist2D
    1.0
     138.47398467       0.00000000       0.00000000
       0.00000000     106.33167189       0.00000000
       0.00000000       0.00000000      20.00000000
    P
    8068
Direct
     0.01190476     0.02424694     0.42564718
     0.01190476     0.06591361     0.42564718
     0.01190476     0.10758027     0.42564718
     0.01190476     0.14924694     0.42564718
     0.01190476     0.19091361     0.42564718
     0.01190476     0.23258027     0.42564718
     0.01190476     0.27424694     0.42564718
     0.01190476     0.31591361     0.42564718
     0.01190476     0.35758027     0.42564718
     0.01190476     0.39924694     0.42564718
     0.01190476     0.44091361     0.42564718
     0.01190476     0.48258027     0.42564718
     0.01190476     0.52424694     0.42564718
     0.01190476     0.56591361     0.42564718
     0.01190476     0.60758027     0.42564718
     0.01190476     0.64924694     0.42564718
     0.01190476     0.69091361     0.42564718
     0.01190476     0.73258027     0.42564718
     0.01190476     0.77424694     0.42564718
     0.01190476     0.81591361     0.42564718
     0.01190476     0.85758027     0.42564718
     0.01190476     0.89924694     0.42564718
     0.01190476     0.94091361     0.42564718
     0.01190476     0.98258027     0.42564718
     0.03571429     0.02424694     0.42564718
     0.03571429     0.06591361     0.42564718
     0.03571429     0.10758027     0.42564718
     0.03571429     0.14924694     0.42564718
     0.03571429     0.19091361     0.42564718
     0.03571429     0.23258027     0.42564718
     0.03571429     0.27424694     0.42564718
     0.03571429     0.31591361     0.42564718
     0.03571429     0.35758027     0.42564718
     0.03571429     0.39924694     0.42564718
     0.03571429     0.44091361     0.42564718
     0.03571429     0.48258027     0.42564718
     0.03571429     0.52424694     0.42564718
     0.03571429     0.56591361     0.42564718
     0.03571429     0.60758027     0.42564718
     0.03571429     0.64924694     0.42564718
     0.03571429     0.69091361     0.42564718
     0.03571429     0.73258027     0.42564718
     0.03571429     0.77424694     0.42564718
     0.03571429     0.81591361     0.42564718
     0.03571429     0.85758027     0.42564718
     0.03571429     0.89924694     0.42564718
     0.03571429     0.94091361     0.42564718
     0.03571429     0.98258027     0.42564718
     0.05952381     0.02424694     0.42564718
     0.05952381     0.06591361     0.42564718
     0.05952381     0.10758027     0.42564718
     0.05952381     0.14924694     0.42564718
     0.05952381     0.19091361     0.42564718
     0.05952381     0.23258027     0.42564718
     0.05952381     0.27424694     0.42564718
     0.05952381     0.31591361     0.42564718
     0.05952381     0.35758027     0.42564718
     0.05952381     0.39924694     0.42564718
     0.05952381     0.44091361     0.42564718
     0.05952381     0.48258027     0.42564718
     0.05952381     0.52424694     0.42564718
     0.05952381     0.56591361     0.42564718
     0.05952381     0.60758027     0.42564718
     0.05952381     0.64924694     0.42564718
     0.05952381     0.69091361     0.42564718
     0.05952381     0.73258027     0.42564718
     0.05952381     0.77424694     0.42564718
     0.05952381     0.81591361     0.42564718
     0.05952381     0.85758027     0.42564718
     0.05952381     0.89924694     0.42564718
     0.05952381     0.94091361     0.42564718
     0.05952381     0.98258027     0.42564718
     0.08333333     0.02424694     0.42564718
     0.08333333     0.06591361     0.42564718
     0.08333333     0.10758027     0.42564718
     0.08333333     0.14924694     0.42564718
     0.08333333     0.19091361     0.42564718
     0.08333333     0.23258027     0.42564718
     0.08333333     0.27424694     0.42564718
     0.08333333     0.31591361     0.42564718
     0.08333333     0.35758027     0.42564718
     0.08333333     0.39924694     0.42564718
     0.08333333     0.44091361     0.42564718
     0.08333333     0.48258027     0.42564718
     0.08333333     0.52424694     0.42564718
     0.08333333     0.56591361     0.42564718
     0.08333333     0.60758027     0.42564718
     0.08333333     0.64924694     0.42564718
     0.08333333     0.69091361     0.42564718
     0.08333333     0.73258027     0.42564718
     0.08333333     0.77424694     0.42564718
     0.08333333     0.81591361     0.42564718
     0.08333333     0.85758027     0.42564718
     0.08333333     0.89924694     0.42564718
     0.08333333     0.94091361     0.42564718
     0.08333333     0.98258027     0.42564718
     0.10714286     0.02424694     0.42564718
     0.10714286     0.06591361     0.42564718
     0.10714286     0.10758027     0.42564718
     0.10714286     0.14924694     0.42564718
     0.10714286     0.19091361     0.42564718
     0.10714286     0.23258027     0.42564718
     0.10714286     0.27424694     0.42564718
     0.10714286     0.31591361     0.42564718
     0.10714286     0.35758027     0.42564718
     0.10714286     0.39924694     0.42564718
     0.10714286     0.44091361     0.42564718
     0.10714286     0.48258027     0.42564718
     0.10714286     0.52424694     0.42564718
     0.10714286     0.56591361     0.42564718
     0.10714286     0.60758027     0.42564718
     0.10714286     0.64924694     0.42564718
     0.10714286     0.69091361     0.42564718
     0.10714286     0.73258027     0.42564718
     0.10714286     0.77424694     0.42564718
     0.10714286     0.81591361     0.42564718
     0.10714286     0.85758027     0.42564718
     0.10714286     0.89924694     0.42564718
     0.10714286     0.94091361     0.42564718
     0.10714286     0.98258027     0.42564718
     0.13095238     0.02424694     0.42564718
     0.13095238     0.06591361     0.42564718
     0.13095238     0.10758027     0.42564718
     0.13095238     0.14924694     0.42564718
     0.13095238     0.19091361     0.42564718
     0.13095238     0.23258027     0.42564718
     0.13095238     0.27424694     0.42564718
     0.13095238     0.31591361     0.42564718
     0.13095238     0.35758027     0.42564718
     0.13095238     0.39924694     0.42564718
     0.13095238     0.44091361     0.42564718
     0.13095238     0.48258027     0.42564718
     0.13095238     0.52424694     0.42564718
     0.13095238     0.56591361     0.42564718
     0.13095238     0.60758027     0.42564718
     0.13095238     0.64924694     0.42564718
     0.13095238     0.69091361     0.42564718
     0.13095238     0.73258027     0.42564718
     0.13095238     0.77424694     0.42564718
     0.13095238     0.81591361     0.42564718
     0.13095238     0.85758027     0.42564718
     0.13095238     0.89924694     0.42564718
     0.13095238     0.94091361     0.42564718
     0.13095238     0.98258027     0.42564718
     0.15476190     0.02424694     0.42564718
     0.15476190     0.06591361     0.42564718
     0.15476190     0.10758027     0.42564718
     0.15476190     0.14924694     0.42564718
     0.15476190     0.19091361     0.42564718
     0.15476190     0.23258027     0.42564718
     0.15476190     0.27424694     0.42564718
     0.15476190     0.31591361     0.42564718
     0.15476190     0.35758027     0.42564718
     0.15476190     0.39924694     0.42564718
     0.15476190     0.44091361     0.42564718
     0.15476190     0.48258027     0.42564718
     0.15476190     0.52424694     0.42564718
     0.15476190     0.56591361     0.42564718
     0.15476190     0.60758027     0.42564718
     0.15476190     0.64924694     0.42564718
     0.15476190     0.69091361     0.42564718
     0.15476190     0.73258027     0.42564718
     0.15476190     0.77424694     0.42564718
     0.15476190     0.81591361     0.42564718
     0.15476190     0.85758027     0.42564718
     0.15476190     0.89924694     0.42564718
     0.15476190     0.94091361     0.42564718
     0.15476190     0.98258027     0.42564718
     0.17857143     0.02424694     0.42564718
     0.17857143     0.06591361     0.42564718
     0.17857143     0.10758027     0.42564718
     0.17857143     0.14924694     0.42564718
     0.17857143     0.19091361     0.42564718
     0.17857143     0.23258027     0.42564718
     0.17857143     0.27424694     0.42564718
     0.17857143     0.31591361     0.42564718
     0.17857143     0.35758027     0.42564718
     0.17857143     0.39924694     0.42564718
     0.17857143     0.44091361     0.42564718
     0.17857143     0.48258027     0.42564718
     0.17857143     0.52424694     0.42564718
     0.17857143     0.56591361     0.42564718
     0.17857143     0.60758027     0.42564718
     0.17857143     0.64924694     0.42564718
     0.17857143     0.69091361     0.42564718
     0.17857143     0.73258027     0.42564718
     0.17857143     0.77424694     0.42564718
     0.17857143     0.81591361     0.42564718
     0.17857143     0.85758027     0.42564718
     0.17857143     0.89924694     0.42564718
     0.17857143     0.94091361     0.42564718
     0.17857143     0.98258027     0.42564718
     0.20238095     0.02424694     0.42564718
     0.20238095     0.06591361     0.42564718
     0.20238095     0.10758027     0.42564718
     0.20238095     0.14924694     0.42564718
     0.20238095     0.19091361     0.42564718
     0.20238095     0.23258027     0.42564718
     0.20238095     0.27424694     0.42564718
     0.20238095     0.31591361     0.42564718
     0.20238095     0.35758027     0.42564718
     0.20238095     0.39924694     0.42564718
     0.20238095     0.44091361     0.42564718
     0.20238095     0.48258027     0.42564718
     0.20238095     0.52424694     0.42564718
     0.20238095     0.56591361     0.42564718
     0.20238095     0.60758027     0.42564718
     0.20238095     0.64924694     0.42564718
     0.20238095     0.69091361     0.42564718
     0.20238095     0.73258027     0.42564718
     0.20238095     0.77424694     0.42564718
     0.20238095     0.81591361     0.42564718
     0.20238095     0.85758027     0.42564718
     0.20238095     0.89924694     0.42564718
     0.20238095     0.94091361     0.42564718
     0.20238095     0.98258027     0.42564718
     0.22619048     0.02424694     0.42564718
     0.22619048     0.06591361     0.42564718
     0.22619048     0.10758027     0.42564718
     0.22619048     0.14924694     0.42564718
     0.22619048     0.19091361     0.42564718
     0.22619048     0.23258027     0.42564718
     0.22619048     0.27424694     0.42564718
     0.22619048     0.31591361     0.42564718
     0.22619048     0.35758027     0.42564718
     0.22619048     0.39924694     0.42564718
     0.22619048     0.44091361     0.42564718
     0.22619048     0.48258027     0.42564718
     0.22619048     0.52424694     0.42564718
     0.22619048     0.56591361     0.42564718
     0.22619048     0.60758027     0.42564718
     0.22619048     0.64924694     0.42564718
     0.22619048     0.69091361     0.42564718
     0.22619048     0.73258027     0.42564718
     0.22619048     0.77424694     0.42564718
     0.22619048     0.81591361     0.42564718
     0.22619048     0.85758027     0.42564718
     0.22619048     0.89924694     0.42564718
     0.22619048     0.94091361     0.42564718
     0.22619048     0.98258027     0.42564718
     0.25000000     0.02424694     0.42564718
     0.25000000     0.06591361     0.42564718
     0.25000000     0.10758027     0.42564718
     0.25000000     0.14924694     0.42564718
     0.25000000     0.19091361     0.42564718
     0.25000000     0.23258027     0.42564718
     0.25000000     0.27424694     0.42564718
     0.25000000     0.31591361     0.42564718
     0.25000000     0.35758027     0.42564718
     0.25000000     0.39924694     0.42564718
     0.25000000     0.44091361     0.42564718
     0.25000000     0.48258027     0.42564718
     0.25000000     0.52424694     0.42564718
     0.25000000     0.56591361     0.42564718
     0.25000000     0.60758027     0.42564718
     0.25000000     0.64924694     0.42564718
     0.25000000     0.69091361     0.42564718
     0.25000000     0.73258027     0.42564718
     0.25000000     0.77424694     0.42564718
     0.25000000     0.81591361     0.42564718
     0.25000000     0.85758027     0.42564718
     0.25000000     0.89924694     0.42564718
     0.25000000     0.94091361     0.42564718
     0.25000000     0.98258027     0.42564718
     0.27380952     0.02424694     0.42564718
     0.27380952     0.06591361     0.42564718
     0.27380952     0.10758027     0.42564718
     0.27380952     0.14924694     0.42564718
     0.27380952     0.19091361     0.42564718
     0.27380952     0.23258027     0.42564718
     0.27380952     0.27424694     0.42564718
     0.27380952     0.31591361     0.42564718
     0.27380952     0.35758027     0.42564718
     0.27380952     0.39924694     0.42564718
     0.27380952     0.44091361     0.42564718
     0.27380952     0.48258027     0.42564718
     0.27380952     0.52424694     0.42564718
     0.27380952     0.56591361     0.42564718
     0.27380952     0.60758027     0.42564718
     0.27380952     0.64924694     0.42564718
     0.27380952     0.69091361     0.42564718
     0.27380952     0.73258027     0.42564718
     0.27380952     0.77424694     0.42564718
     0.27380952     0.81591361     0.42564718
     0.27380952     0.85758027     0.42564718
     0.27380952     0.89924694     0.42564718
     0.27380952     0.94091361     0.42564718
     0.27380952     0.98258027     0.42564718
     0.29761905     0.02424694     0.42564718
     0.29761905     0.06591361     0.42564718
     0.29761905     0.10758027     0.42564718
     0.29761905     0.14924694     0.42564718
     0.29761905     0.19091361     0.42564718
     0.29761905     0.23258027     0.42564718
     0.29761905     0.27424694     0.42564718
     0.29761905     0.31591361     0.42564718
     0.29761905     0.35758027     0.42564718
     0.29761905     0.39924694     0.42564718
     0.29761905     0.44091361     0.42564718
     0.29761905     0.48258027     0.42564718
     0.29761905     0.52424694     0.42564718
     0.29761905     0.56591361     0.42564718
     0.29761905     0.60758027     0.42564718
     0.29761905     0.64924694     0.42564718
     0.29761905     0.69091361     0.42564718
     0.29761905     0.73258027     0.42564718
     0.29761905     0.77424694     0.42564718
     0.29761905     0.81591361     0.42564718
     0.29761905     0.85758027     0.42564718
     0.29761905     0.89924694     0.42564718
     0.29761905     0.94091361     0.42564718
     0.29761905     0.98258027     0.42564718
     0.32142857     0.02424694     0.42564718
     0.32142857     0.06591361     0.42564718
     0.32142857     0.10758027     0.42564718
     0.32142857     0.14924694     0.42564718
     0.32142857     0.19091361     0.42564718
     0.32142857     0.23258027     0.42564718
     0.32142857     0.27424694     0.42564718
     0.32142857     0.31591361     0.42564718
     0.32142857     0.35758027     0.42564718
     0.32142857     0.39924694     0.42564718
     0.32142857     0.44091361     0.42564718
     0.32142857     0.48258027     0.42564718
     0.32142857     0.52424694     0.42564718
     0.32142857     0.56591361     0.42564718
     0.32142857     0.60758027     0.42564718
     0.32142857     0.64924694     0.42564718
     0.32142857     0.69091361     0.42564718
     0.32142857     0.73258027     0.42564718
     0.32142857     0.77424694     0.42564718
     0.32142857     0.81591361     0.42564718
     0.32142857     0.85758027     0.42564718
     0.32142857     0.89924694     0.42564718
     0.32142857     0.94091361     0.42564718
     0.32142857     0.98258027     0.42564718
     0.34523810     0.02424694     0.42564718
     0.34523810     0.06591361     0.42564718
     0.34523810     0.10758027     0.42564718
     0.34523810     0.14924694     0.42564718
     0.34523810     0.19091361     0.42564718
     0.34523810     0.23258027     0.42564718
     0.34523810     0.27424694     0.42564718
     0.34523810     0.31591361     0.42564718
     0.34523810     0.35758027     0.42564718
     0.34523810     0.39924694     0.42564718
     0.34523810     0.44091361     0.42564718
     0.34523810     0.48258027     0.42564718
     0.34523810     0.52424694     0.42564718
     0.34523810     0.56591361     0.42564718
     0.34523810     0.60758027     0.42564718
     0.34523810     0.64924694     0.42564718
     0.34523810     0.69091361     0.42564718
     0.34523810     0.73258027     0.42564718
     0.34523810     0.77424694     0.42564718
     0.34523810     0.81591361     0.42564718
     0.34523810     0.85758027     0.42564718
     0.34523810     0.89924694     0.42564718
     0.34523810     0.94091361     0.42564718
     0.34523810     0.98258027     0.42564718
     0.36904762     0.02424694     0.42564718
     0.36904762     0.06591361     0.42564718
     0.36904762     0.10758027     0.42564718
     0.36904762     0.14924694     0.42564718
     0.36904762     0.19091361     0.42564718
     0.36904762     0.23258027     0.42564718
     0.36904762     0.27424694     0.42564718
     0.36904762     0.31591361     0.42564718
     0.36904762     0.35758027     0.42564718
     0.36904762     0.39924694     0.42564718
     0.36904762     0.44091361     0.42564718
     0.36904762     0.48258027     0.42564718
     0.36904762     0.52424694     0.42564718
     0.36904762     0.56591361     0.42564718
     0.36904762     0.60758027     0.42564718
     0.36904762     0.64924694     0.42564718
     0.36904762     0.69091361     0.42564718
     0.36904762     0.73258027     0.42564718
     0.36904762     0.77424694     0.42564718
     0.36904762     0.81591361     0.42564718
     0.36904762     0.85758027     0.42564718
     0.36904762     0.89924694     0.42564718
     0.36904762     0.94091361     0.42564718
     0.36904762     0.98258027     0.42564718
     0.39285714     0.02424694     0.42564718
     0.39285714     0.06591361     0.42564718
     0.39285714     0.10758027     0.42564718
     0.39285714     0.14924694     0.42564718
     0.39285714     0.19091361     0.42564718
     0.39285714     0.23258027     0.42564718
     0.39285714     0.27424694     0.42564718
     0.39285714     0.31591361     0.42564718
     0.39285714     0.35758027     0.42564718
     0.39285714     0.39924694     0.42564718
     0.39285714     0.44091361     0.42564718
     0.39285714     0.48258027     0.42564718
     0.39285714     0.52424694     0.42564718
     0.39285714     0.56591361     0.42564718
     0.39285714     0.60758027     0.42564718
     0.39285714     0.64924694     0.42564718
     0.39285714     0.69091361     0.42564718
     0.39285714     0.73258027     0.42564718
     0.39285714     0.77424694     0.42564718
     0.39285714     0.81591361     0.42564718
     0.39285714     0.85758027     0.42564718
     0.39285714     0.89924694     0.42564718
     0.39285714     0.94091361     0.42564718
     0.39285714     0.98258027     0.42564718
     0.41666667     0.02424694     0.42564718
     0.41666667     0.06591361     0.42564718
     0.41666667     0.10758027     0.42564718
     0.41666667     0.14924694     0.42564718
     0.41666667     0.19091361     0.42564718
     0.41666667     0.23258027     0.42564718
     0.41666667     0.27424694     0.42564718
     0.41666667     0.31591361     0.42564718
     0.41666667     0.35758027     0.42564718
     0.41666667     0.39924694     0.42564718
     0.41666667     0.44091361     0.42564718
     0.41666667     0.48258027     0.42564718
     0.41666667     0.52424694     0.42564718
     0.41666667     0.56591361     0.42564718
     0.41666667     0.60758027     0.42564718
     0.41666667     0.64924694     0.42564718
     0.41666667     0.69091361     0.42564718
     0.41666667     0.73258027     0.42564718
     0.41666667     0.77424694     0.42564718
     0.41666667     0.81591361     0.42564718
     0.41666667     0.85758027     0.42564718
     0.41666667     0.89924694     0.42564718
     0.41666667     0.94091361     0.42564718
     0.41666667     0.98258027     0.42564718
     0.44047619     0.02424694     0.42564718
     0.44047619     0.06591361     0.42564718
     0.44047619     0.10758027     0.42564718
     0.44047619     0.14924694     0.42564718
     0.44047619     0.19091361     0.42564718
     0.44047619     0.23258027     0.42564718
     0.44047619     0.27424694     0.42564718
     0.44047619     0.31591361     0.42564718
     0.44047619     0.35758027     0.42564718
     0.44047619     0.39924694     0.42564718
     0.44047619     0.44091361     0.42564718
     0.44047619     0.48258027     0.42564718
     0.44047619     0.52424694     0.42564718
     0.44047619     0.56591361     0.42564718
     0.44047619     0.60758027     0.42564718
     0.44047619     0.64924694     0.42564718
     0.44047619     0.69091361     0.42564718
     0.44047619     0.73258027     0.42564718
     0.44047619     0.77424694     0.42564718
     0.44047619     0.81591361     0.42564718
     0.44047619     0.85758027     0.42564718
     0.44047619     0.89924694     0.42564718
     0.44047619     0.94091361     0.42564718
     0.44047619     0.98258027     0.42564718
     0.46428571     0.02424694     0.42564718
     0.46428571     0.06591361     0.42564718
     0.46428571     0.10758027     0.42564718
     0.46428571     0.14924694     0.42564718
     0.46428571     0.19091361     0.42564718
     0.46428571     0.23258027     0.42564718
     0.46428571     0.27424694     0.42564718
     0.46428571     0.31591361     0.42564718
     0.46428571     0.35758027     0.42564718
     0.46428571     0.39924694     0.42564718
     0.46428571     0.44091361     0.42564718
     0.46428571     0.48258027     0.42564718
     0.46428571     0.52424694     0.42564718
     0.46428571     0.56591361     0.42564718
     0.46428571     0.60758027     0.42564718
     0.46428571     0.64924694     0.42564718
     0.46428571     0.69091361     0.42564718
     0.46428571     0.73258027     0.42564718
     0.46428571     0.77424694     0.42564718
     0.46428571     0.81591361     0.42564718
     0.46428571     0.85758027     0.42564718
     0.46428571     0.89924694     0.42564718
     0.46428571     0.94091361     0.42564718
     0.46428571     0.98258027     0.42564718
     0.48809524     0.02424694     0.42564718
     0.48809524     0.06591361     0.42564718
     0.48809524     0.10758027     0.42564718
     0.48809524     0.14924694     0.42564718
     0.48809524     0.19091361     0.42564718
     0.48809524     0.23258027     0.42564718
     0.48809524     0.27424694     0.42564718
     0.48809524     0.31591361     0.42564718
     0.48809524     0.35758027     0.42564718
     0.48809524     0.39924694     0.42564718
     0.48809524     0.44091361     0.42564718
     0.48809524     0.48258027     0.42564718
     0.48809524     0.52424694     0.42564718
     0.48809524     0.56591361     0.42564718
     0.48809524     0.60758027     0.42564718
     0.48809524     0.64924694     0.42564718
     0.48809524     0.69091361     0.42564718
     0.48809524     0.73258027     0.42564718
     0.48809524     0.77424694     0.42564718
     0.48809524     0.81591361     0.42564718
     0.48809524     0.85758027     0.42564718
     0.48809524     0.89924694     0.42564718
     0.48809524     0.94091361     0.42564718
     0.48809524     0.98258027     0.42564718
     0.51190476     0.02424694     0.42564718
     0.51190476     0.06591361     0.42564718
     0.51190476     0.10758027     0.42564718
     0.51190476     0.14924694     0.42564718
     0.51190476     0.19091361     0.42564718
     0.51190476     0.23258027     0.42564718
     0.51190476     0.27424694     0.42564718
     0.51190476     0.31591361     0.42564718
     0.51190476     0.35758027     0.42564718
     0.51190476     0.39924694     0.42564718
     0.51190476     0.44091361     0.42564718
     0.51190476     0.48258027     0.42564718
     0.51190476     0.52424694     0.42564718
     0.51190476     0.56591361     0.42564718
     0.51190476     0.60758027     0.42564718
     0.51190476     0.64924694     0.42564718
     0.51190476     0.69091361     0.42564718
     0.51190476     0.73258027     0.42564718
     0.51190476     0.77424694     0.42564718
     0.51190476     0.81591361     0.42564718
     0.51190476     0.85758027     0.42564718
     0.51190476     0.89924694     0.42564718
     0.51190476     0.94091361     0.42564718
     0.51190476     0.98258027     0.42564718
     0.53571429     0.02424694     0.42564718
     0.53571429     0.06591361     0.42564718
     0.53571429     0.10758027     0.42564718
     0.53571429     0.14924694     0.42564718
     0.53571429     0.19091361     0.42564718
     0.53571429     0.23258027     0.42564718
     0.53571429     0.27424694     0.42564718
     0.53571429     0.31591361     0.42564718
     0.53571429     0.35758027     0.42564718
     0.53571429     0.39924694     0.42564718
     0.53571429     0.44091361     0.42564718
     0.53571429     0.48258027     0.42564718
     0.53571429     0.52424694     0.42564718
     0.53571429     0.56591361     0.42564718
     0.53571429     0.60758027     0.42564718
     0.53571429     0.64924694     0.42564718
     0.53571429     0.69091361     0.42564718
     0.53571429     0.73258027     0.42564718
     0.53571429     0.77424694     0.42564718
     0.53571429     0.81591361     0.42564718
     0.53571429     0.85758027     0.42564718
     0.53571429     0.89924694     0.42564718
     0.53571429     0.94091361     0.42564718
     0.53571429     0.98258027     0.42564718
     0.55952381     0.02424694     0.42564718
     0.55952381     0.06591361     0.42564718
     0.55952381     0.10758027     0.42564718
     0.55952381     0.14924694     0.42564718
     0.55952381     0.19091361     0.42564718
     0.55952381     0.23258027     0.42564718
     0.55952381     0.27424694     0.42564718
     0.55952381     0.31591361     0.42564718
     0.55952381     0.35758027     0.42564718
     0.55952381     0.39924694     0.42564718
     0.55952381     0.44091361     0.42564718
     0.55952381     0.48258027     0.42564718
     0.55952381     0.52424694     0.42564718
     0.55952381     0.56591361     0.42564718
     0.55952381     0.60758027     0.42564718
     0.55952381     0.64924694     0.42564718
     0.55952381     0.69091361     0.42564718
     0.55952381     0.73258027     0.42564718
     0.55952381     0.77424694     0.42564718
     0.55952381     0.81591361     0.42564718
     0.55952381     0.85758027     0.42564718
     0.55952381     0.89924694     0.42564718
     0.55952381     0.94091361     0.42564718
     0.55952381     0.98258027     0.42564718
     0.58333333     0.02424694     0.42564718
     0.58333333     0.06591361     0.42564718
     0.58333333     0.10758027     0.42564718
     0.58333333     0.14924694     0.42564718
     0.58333333     0.19091361     0.42564718
     0.58333333     0.23258027     0.42564718
     0.58333333     0.27424694     0.42564718
     0.58333333     0.31591361     0.42564718
     0.58333333     0.35758027     0.42564718
     0.58333333     0.39924694     0.42564718
     0.58333333     0.44091361     0.42564718
     0.58333333     0.48258027     0.42564718
     0.58333333     0.52424694     0.42564718
     0.58333333     0.56591361     0.42564718
     0.58333333     0.60758027     0.42564718
     0.58333333     0.64924694     0.42564718
     0.58333333     0.69091361     0.42564718
     0.58333333     0.73258027     0.42564718
     0.58333333     0.77424694     0.42564718
     0.58333333     0.81591361     0.42564718
     0.58333333     0.85758027     0.42564718
     0.58333333     0.89924694     0.42564718
     0.58333333     0.94091361     0.42564718
     0.58333333     0.98258027     0.42564718
     0.60714286     0.02424694     0.42564718
     0.60714286     0.06591361     0.42564718
     0.60714286     0.10758027     0.42564718
     0.60714286     0.14924694     0.42564718
     0.60714286     0.19091361     0.42564718
     0.60714286     0.23258027     0.42564718
     0.60714286     0.27424694     0.42564718
     0.60714286     0.31591361     0.42564718
     0.60714286     0.35758027     0.42564718
     0.60714286     0.39924694     0.42564718
     0.60714286     0.44091361     0.42564718
     0.60714286     0.48258027     0.42564718
     0.60714286     0.52424694     0.42564718
     0.60714286     0.56591361     0.42564718
     0.60714286     0.60758027     0.42564718
     0.60714286     0.64924694     0.42564718
     0.60714286     0.69091361     0.42564718
     0.60714286     0.73258027     0.42564718
     0.60714286     0.77424694     0.42564718
     0.60714286     0.81591361     0.42564718
     0.60714286     0.85758027     0.42564718
     0.60714286     0.89924694     0.42564718
     0.60714286     0.94091361     0.42564718
     0.60714286     0.98258027     0.42564718
     0.63095238     0.02424694     0.42564718
     0.63095238     0.06591361     0.42564718
     0.63095238     0.10758027     0.42564718
     0.63095238     0.14924694     0.42564718
     0.63095238     0.19091361     0.42564718
     0.63095238     0.23258027     0.42564718
     0.63095238     0.27424694     0.42564718
     0.63095238     0.31591361     0.42564718
     0.63095238     0.35758027     0.42564718
     0.63095238     0.39924694     0.42564718
     0.63095238     0.44091361     0.42564718
     0.63095238     0.48258027     0.42564718
     0.63095238     0.52424694     0.42564718
     0.63095238     0.56591361     0.42564718
     0.63095238     0.60758027     0.42564718
     0.63095238     0.64924694     0.42564718
     0.63095238     0.69091361     0.42564718
     0.63095238     0.73258027     0.42564718
     0.63095238     0.77424694     0.42564718
     0.63095238     0.81591361     0.42564718
     0.63095238     0.85758027     0.42564718
     0.63095238     0.89924694     0.42564718
     0.63095238     0.94091361     0.42564718