Generated by Twist2D
    1.0
     168.14698138       0.00000000       0.00000000
       0.00000000     124.05361721       0.00000000
       0.00000000       0.00000000      20.00000000
    P
    11428
Direct
     0.00980392     0.02078309     0.42564718
     0.00980392     0.05649738     0.42564718
     0.00980392     0.09221166     0.42564718
     0.00980392     0.12792595     0.42564718
     0.00980392     0.16364023     0.42564718
     0.00980392     0.19935452     0.42564718
     0.00980392     0.23506880     0.42564718
     0.00980392     0.27078309     0.42564718
     0.00980392     0.30649738     0.42564718
     0.00980392     0.34221166     0.42564718
     0.00980392     0.37792595     0.42564718
     0.00980392     0.41364023     0.42564718
     0.00980392     0.44935452     0.42564718
     0.00980392     0.48506880     0.42564718
     0.00980392     0.52078309     0.42564718
     0.00980392     0.55649738     0.42564718
     0.00980392     0.59221166     0.42564718
     0.00980392     0.62792595     0.42564718
     0.00980392     0.66364023     0.42564718
     0.00980392     0.69935452     0.42564718
     0.00980392     0.73506880     0.42564718
     0.00980392     0.77078309     0.42564718
     0.00980392     0.80649738     0.42564718
     0.00980392     0.84221166     0.42564718
     0.00980392     0.87792595     0.42564718
     0.00980392     0.91364023     0.42564718
     0.00980392     0.94935452     0.42564718
     0.00980392     0.98506880     0.42564718
     0.02941176     0.02078309     0.42564718
     0.02941176     0.05649738     0.42564718
     0.02941176     0.09221166     0.42564718
     0.02941176     0.12792595     0.42564718
     0.02941176     0.16364023     0.42564718
     0.02941176     0.19935452     0.42564718
     0.02941176     0.23506880     0.42564718
     0.02941176     0.27078309     0.42564718
     0.02941176     0.30649738     0.42564718
     0.02941176     0.34221166     0.42564718
     0.02941176     0.37792595     0.42564718
     0.02941176     0.41364023     0.42564718
     0.02941176     0.44935452     0.42564718
     0.02941176     0.48506880     0.42564718
     0.02941176     0.52078309     0.42564718
     0.02941176     0.55649738     0.42564718
     0.02941176     0.59221166     0.42564718
     0.02941176     0.62792595     0.42564718
     0.02941176     0.66364023     0.42564718
     0.02941176     0.69935452     0.42564718
     0.02941176     0.73506880     0.42564718
     0.02941176     0.77078309     0.42564718
     0.02941176     0.80649738     0.42564718
     0.02941176     0.84221166     0.42564718
     0.02941176     0.87792595     0.42564718
     0.02941176     0.91364023     0.42564718
     0.02941176     0.94935452     0.42564718
     0.02941176     0.98506880     0.42564718
     0.04901961     0.02078309     0.42564718
     0.04901961     0.05649738     0.42564718
     0.04901961     0.09221166     0.42564718
     0.04901961     0.12792595     0.42564718
     0.04901961     0.16364023     0.42564718
     0.04901961     0.19935452     0.42564718
     0.04901961     0.23506880     0.42564718
     0.04901961     0.27078309     0.42564718
     0.04901961     0.30649738     0.42564718
     0.04901961     0.34221166     0.42564718
     0.04901961     0.37792595     0.42564718
     0.04901961     0.41364023     0.42564718
     0.04901961     0.44935452     0.42564718
     0.04901961     0.48506880     0.42564718
     0.04901961     0.52078309     0.42564718
     0.04901961     0.55649738     0.42564718
     0.04901961     0.59221166     0.42564718
     0.04901961     0.62792595     0.42564718
     0.04901961     0.66364023     0.42564718
     0.04901961     0.69935452     0.42564718
     0.04901961     0.73506880     0.42564718
     0.04901961     0.77078309     0.42564718
     0.04901961     0.80649738     0.42564718
     0.04901961     0.84221166     0.42564718
     0.04901961     0.87792595     0.42564718
     0.04901961     0.91364023     0.42564718
     0.04901961     0.94935452     0.42564718
     0.04901961     0.98506880     0.42564718
     0.06862745     0.02078309     0.42564718
     0.06862745     0.05649738     0.42564718
     0.06862745     0.09221166     0.42564718
     0.06862745     0.12792595     0.42564718
     0.06862745     0.16364023     0.42564718
     0.06862745     0.19935452     0.42564718
     0.06862745     0.23506880     0.42564718
     0.06862745     0.27078309     0.42564718
     0.06862745     0.30649738     0.42564718
     0.06862745     0.34221166     0.42564718
     0.06862745     0.37792595     0.42564718
     0.06862745     0.41364023     0.42564718
     0.06862745     0.44935452     0.42564718
     0.06862745     0.48506880     0.42564718
     0.06862745     0.52078309     0.42564718
     0.06862745     0.55649738     0.42564718
     0.06862745     0.59221166     0.42564718
     0.06862745     0.62792595     0.42564718
     0.06862745     0.66364023     0.42564718
     0.06862745     0.69935452     0.42564718
     0.06862745     0.73506880     0.42564718
     0.06862745     0.77078309     0.42564718
     0.06862745     0.80649738     0.42564718
     0.06862745     0.84221166     0.42564718
     0.06862745     0.87792595     0.42564718
     0.06862745     0.91364023     0.42564718
     0.06862745     0.94935452     0.42564718
     0.06862745     0.98506880     0.42564718
     0.08823529     0.02078309     0.42564718
     0.08823529     0.05649738     0.42564718
     0.08823529     0.09221166     0.42564718
     0.08823529     0.12792595     0.42564718
     0.08823529     0.16364023     0.42564718
     0.08823529     0.19935452     0.42564718
     0.08823529     0.23506880     0.42564718
     0.08823529     0.27078309     0.42564718
     0.08823529     0.30649738     0.42564718
     0.08823529     0.34221166     0.42564718
     0.08823529     0.37792595     0.42564718
     0.08823529     0.41364023     0.42564718
     0.08823529     0.44935452     0.42564718
     0.08823529     0.48506880     0.42564718
     0.08823529     0.52078309     0.42564718
     0.08823529     0.55649738     0.42564718
     0.08823529     0.59221166     0.42564718
     0.08823529     0.62792595     0.42564718
     0.08823529     0.66364023     0.42564718
     0.08823529     0.69935452     0.42564718
     0.08823529     0.73506880     0.42564718
     0.08823529     0.77078309     0.42564718
     0.08823529     0.80649738     0.42564718
     0.08823529     0.84221166     0.42564718
     0.08823529     0.87792595     0.42564718
     0.08823529     0.91364023     0.42564718
     0.08823529     0.94935452     0.42564718
     0.08823529     0.98506880     0.42564718
     0.10784314     0.02078309     0.42564718
     0.10784314     0.05649738     0.42564718
     0.10784314     0.09221166     0.42564718
     0.10784314     0.12792595     0.42564718
     0.10784314     0.16364023     0.42564718
     0.10784314     0.19935452     0.42564718
     0.10784314     0.23506880     0.42564718
     0.10784314     0.27078309     0.42564718
     0.10784314     0.30649738     0.42564718
     0.10784314     0.34221166     0.42564718
     0.10784314     0.37792595     0.42564718
     0.10784314     0.41364023     0.42564718
     0.10784314     0.44935452     0.42564718
     0.10784314     0.48506880     0.42564718
     0.10784314     0.52078309     0.42564718
     0.10784314     0.55649738     0.42564718
     0.10784314     0.59221166     0.42564718
     0.10784314     0.62792595     0.42564718
     0.10784314     0.66364023     0.42564718
     0.10784314     0.69935452     0.42564718
     0.10784314     0.73506880     0.42564718
     0.10784314     0.77078309     0.42564718
     0.10784314     0.80649738     0.42564718
     0.10784314     0.84221166     0.42564718
     0.10784314     0.87792595     0.42564718
     0.10784314     0.91364023     0.42564718
     0.10784314     0.94935452     0.42564718
     0.10784314     0.98506880     0.42564718
     0.12745098     0.02078309     0.42564718
     0.12745098     0.05649738     0.42564718
     0.12745098     0.09221166     0.42564718
     0.12745098     0.12792595     0.42564718
     0.12745098     0.16364023     0.42564718
     0.12745098     0.19935452     0.42564718
     0.12745098     0.23506880     0.42564718
     0.12745098     0.27078309     0.42564718
     0.12745098     0.30649738     0.42564718
     0.12745098     0.34221166     0.42564718
     0.12745098     0.37792595     0.42564718
     0.12745098     0.41364023     0.42564718
     0.12745098     0.44935452     0.42564718
     0.12745098     0.48506880     0.42564718
     0.12745098     0.52078309     0.42564718
     0.12745098     0.55649738     0.42564718
     0.12745098     0.59221166     0.42564718
     0.12745098     0.62792595     0.42564718
     0.12745098     0.66364023     0.42564718
     0.12745098     0.69935452     0.42564718
     0.12745098     0.73506880     0.42564718
     0.12745098     0.77078309     0.42564718
     0.12745098     0.80649738     0.42564718
     0.12745098     0.84221166     0.42564718
     0.12745098     0.87792595     0.42564718
     0.12745098     0.91364023     0.42564718
     0.12745098     0.94935452     0.42564718
     0.12745098     0.98506880     0.42564718
     0.14705882     0.02078309     0.42564718
     0.14705882     0.05649738     0.42564718
     0.14705882     0.09221166     0.42564718
     0.14705882     0.12792595     0.42564718
     0.14705882     0.16364023     0.42564718
     0.14705882     0.19935452     0.42564718
     0.14705882     0.23506880     0.42564718
     0.14705882     0.27078309     0.42564718
     0.14705882     0.30649738     0.42564718
     0.14705882     0.34221166     0.42564718
     0.14705882     0.37792595     0.42564718
     0.14705882     0.41364023     0.42564718
     0.14705882     0.44935452     0.42564718
     0.14705882     0.48506880     0.42564718
     0.14705882     0.52078309     0.42564718
     0.14705882     0.55649738     0.42564718
     0.14705882     0.59221166     0.42564718
     0.14705882     0.62792595     0.42564718
     0.14705882     0.66364023     0.42564718
     0.14705882     0.69935452     0.42564718
     0.14705882     0.73506880     0.42564718
     0.14705882     0.77078309     0.42564718
     0.14705882     0.80649738     0.42564718
     0.14705882     0.84221166     0.42564718
     0.14705882     0.87792595     0.42564718
     0.14705882     0.91364023     0.42564718
     0.14705882     0.94935452     0.42564718
     0.14705882     0.98506880     0.42564718
     0.16666667     0.02078309     0.42564718
     0.16666667     0.05649738     0.42564718
     0.16666667     0.09221166     0.42564718
     0.16666667     0.12792595     0.42564718
     0.16666667     0.16364023     0.42564718
     0.16666667     0.19935452     0.42564718
     0.16666667     0.23506880     0.42564718
     0.16666667     0.27078309     0.42564718
     0.16666667     0.30649738     0.42564718
     0.16666667     0.34221166     0.42564718
     0.16666667     0.37792595     0.42564718
     0.16666667     0.41364023     0.42564718
     0.16666667     0.44935452     0.42564718
     0.16666667     0.48506880     0.42564718
     0.16666667     0.52078309     0.42564718
     0.16666667     0.55649738     0.42564718
     0.16666667     0.59221166     0.42564718
     0.16666667     0.62792595     0.42564718
     0.16666667     0.66364023     0.42564718
     0.16666667     0.69935452     0.42564718
     0.16666667     0.73506880     0.42564718
     0.16666667     0.77078309     0.42564718
     0.16666667     0.80649738     0.42564718
     0.16666667     0.84221166     0.42564718
     0.16666667     0.87792595     0.42564718
     0.16666667     0.91364023     0.42564718
     0.16666667     0.94935452     0.42564718
     0.16666667     0.98506880     0.42564718
     0.18627451     0.02078309     0.42564718
     0.18627451     0.05649738     0.42564718
     0.18627451     0.09221166     0.42564718
     0.18627451     0.12792595     0.42564718
     0.18627451     0.16364023     0.42564718
     0.18627451     0.19935452     0.42564718
     0.18627451     0.23506880     0.42564718
     0.18627451     0.27078309     0.42564718
     0.18627451     0.30649738     0.42564718
     0.18627451     0.34221166     0.42564718
     0.18627451     0.37792595     0.42564718
     0.18627451     0.41364023     0.42564718
     0.18627451     0.44935452     0.42564718
     0.18627451     0.48506880     0.42564718
     0.18627451     0.52078309     0.42564718
     0.18627451     0.55649738     0.42564718
     0.18627451     0.59221166     0.42564718
     0.18627451     0.62792595     0.42564718
     0.18627451     0.66364023     0.42564718
     0.18627451     0.69935452     0.42564718
     0.18627451     0.73506880     0.42564718
     0.18627451     0.77078309     0.42564718
     0.18627451     0.80649738     0.42564718
     0.18627451     0.84221166     0.42564718
     0.18627451     0.87792595     0.42564718
     0.18627451     0.91364023     0.42564718
     0.18627451     0.94935452     0.42564718
     0.18627451     0.98506880     0.42564718
     0.20588235     0.02078309     0.42564718
     0.20588235     0.05649738     0.42564718
     0.20588235     0.09221166     0.42564718
     0.20588235     0.12792595     0.42564718
     0.20588235     0.16364023     0.42564718
     0.20588235     0.19935452     0.42564718
     0.20588235     0.23506880     0.42564718
     0.20588235     0.27078309     0.42564718
     0.20588235     0.30649738     0.42564718
     0.20588235     0.34221166     0.42564718
     0.20588235     0.37792595     0.42564718
     0.20588235     0.41364023     0.42564718
     0.20588235     0.44935452     0.42564718
     0.20588235     0.48506880     0.42564718
     0.20588235     0.52078309     0.42564718
     0.20588235     0.55649738     0.42564718
     0.20588235     0.59221166     0.42564718
     0.20588235     0.62792595     0.42564718
     0.20588235     0.66364023     0.42564718
     0.20588235     0.69935452     0.42564718
     0.20588235     0.73506880     0.42564718
     0.20588235     0.77078309     0.42564718
     0.20588235     0.80649738     0.42564718
     0.20588235     0.84221166     0.42564718
     0.20588235     0.87792595     0.42564718
     0.20588235     0.91364023     0.42564718
     0.20588235     0.94935452     0.42564718
     0.20588235     0.98506880     0.42564718
     0.22549020     0.02078309     0.42564718
     0.22549020     0.05649738     0.42564718
     0.22549020     0.09221166     0.42564718
     0.22549020     0.12792595     0.42564718
     0.22549020     0.16364023     0.42564718
     0.22549020     0.19935452     0.42564718
     0.22549020     0.23506880     0.42564718
     0.22549020     0.27078309     0.42564718
     0.22549020     0.30649738     0.42564718
     0.22549020     0.34221166     0.42564718
     0.22549020     0.37792595     0.42564718
     0.22549020     0.41364023     0.42564718
     0.22549020     0.44935452     0.42564718
     0.22549020     0.48506880     0.42564718
     0.22549020     0.52078309     0.42564718
     0.22549020     0.55649738     0.42564718
     0.22549020     0.59221166     0.42564718
     0.22549020     0.62792595     0.42564718
     0.22549020     0.66364023     0.42564718
     0.22549020     0.69935452     0.42564718
     0.22549020     0.73506880     0.42564718
     0.22549020     0.77078309     0.42564718
     0.22549020     0.80649738     0.42564718
     0.22549020     0.84221166     0.42564718
     0.22549020     0.87792595     0.42564718
     0.22549020     0.91364023     0.42564718
     0.22549020     0.94935452     0.42564718
     0.22549020     0.98506880     0.42564718
     0.24509804     0.02078309     0.42564718
     0.24509804     0.05649738     0.42564718
     0.24509804     0.09221166     0.42564718
     0.24509804     0.12792595     0.42564718
     0.24509804     0.16364023     0.42564718
     0.24509804     0.19935452     0.42564718
     0.24509804     0.23506880     0.42564718
     0.24509804     0.27078309     0.42564718
     0.24509804     0.30649738     0.42564718
     0.24509804     0.34221166     0.42564718
     0.24509804     0.37792595     0.42564718
     0.24509804     0.41364023     0.42564718
     0.24509804     0.44935452     0.42564718
     0.24509804     0.48506880     0.42564718
     0.24509804     0.52078309     0.42564718
     0.24509804     0.55649738     0.42564718
     0.24509804     0.59221166     0.42564718
     0.24509804     0.62792595     0.42564718
     0.24509804     0.66364023     0.42564718
     0.24509804     0.69935452     0.42564718
     0.24509804     0.73506880     0.42564718
     0.24509804     0.77078309     0.42564718
     0.24509804     0.80649738     0.42564718
     0.24509804     0.84221166     0.42564718
     0.24509804     0.87792595     0.42564718
     0.24509804     0.91364023     0.42564718
     0.24509804     0.94935452     0.42564718
     0.24509804     0.98506880     0.42564718
     0.26470588     0.02078309     0.42564718
     0.26470588     0.05649738     0.42564718
     0.26470588     0.09221166     0.42564718
     0.26470588     0.12792595     0.42564718
     0.26470588     0.16364023     0.42564718
     0.26470588     0.19935452     0.42564718
     0.26470588     0.23506880     0.42564718
     0.26470588     0.27078309     0.42564718
     0.26470588     0.30649738     0.42564718
     0.26470588     0.34221166     0.42564718
     0.26470588     0.37792595     0.42564718
     0.26470588     0.41364023     0.42564718
     0.26470588     0.44935452     0.42564718
     0.26470588     0.48506880     0.42564718
     0.26470588     0.52078309     0.42564718
     0.26470588     0.55649738     0.42564718
     0.26470588     0.59221166     0.42564718
     0.26470588     0.62792595     0.42564718
     0.26470588     0.66364023     0.42564718
     0.26470588     0.69935452     0.42564718
     0.26470588     0.73506880     0.42564718
     0.26470588     0.77078309     0.42564718
     0.26470588     0.80649738     0.42564718
     0.26470588     0.84221166     0.42564718
     0.26470588     0.87792595     0.42564718
     0.26470588     0.91364023     0.42564718
     0.26470588     0.94935452     0.42564718
     0.26470588     0.98506880     0.42564718
     0.28431373     0.02078309     0.42564718
     0.28431373     0.05649738     0.42564718
     0.28431373     0.09221166     0.42564718
     0.28431373     0.12792595     0.42564718
     0.28431373     0.16364023     0.42564718
     0.28431373     0.19935452     0.42564718
     0.28431373     0.23506880     0.42564718
     0.28431373     0.27078309     0.42564718
     0.28431373     0.30649738     0.42564718
     0.28431373     0.34221166     0.42564718
     0.28431373     0.37792595     0.42564718
     0.28431373     0.41364023     0.42564718
     0.28431373     0.44935452     0.42564718
     0.28431373     0.48506880     0.42564718
     0.28431373     0.52078309     0.42564718
     0.28431373     0.55649738     0.42564718
     0.28431373     0.59221166     0.42564718
     0.28431373     0.62792595     0.42564718
     0.28431373     0.66364023     0.42564718
     0.28431373     0.69935452     0.42564718
     0.28431373     0.73506880     0.42564718
     0.28431373     0.77078309     0.42564718
     0.28431373     0.80649738     0.42564718
     0.28431373     0.84221166     0.42564718
     0.28431373     0.87792595     0.42564718
     0.28431373     0.91364023     0.42564718
     0.28431373     0.94935452     0.42564718
     0.28431373     0.98506880     0.42564718
     0.30392157     0.02078309     0.42564718
     0.30392157     0.05649738     0.42564718
     0.30392157     0.09221166     0.42564718
     0.30392157     0.12792595     0.42564718
     0.30392157     0.16364023     0.42564718
     0.30392157     0.19935452     0.42564718
     0.30392157     0.23506880     0.42564718
     0.30392157     0.27078309     0.42564718
     0.30392157     0.30649738     0.42564718
     0.30392157     0.34221166     0.42564718
     0.30392157     0.37792595     0.42564718
     0.30392157     0.41364023     0.42564718
     0.30392157     0.44935452     0.42564718
     0.30392157     0.48506880     0.42564718
     0.30392157     0.52078309     0.42564718
     0.30392157     0.55649738     0.42564718
     0.30392157     0.59221166     0.42564718
     0.30392157     0.62792595     0.42564718
     0.30392157     0.66364023     0.42564718
     0.30392157     0.69935452     0.42564718
     0.30392157     0.73506880     0.42564718
     0.30392157     0.77078309     0.42564718
     0.30392157     0.80649738     0.42564718
     0.30392157     0.84221166     0.42564718
     0.30392157     0.87792595     0.42564718
     0.30392157     0.91364023     0.42564718
     0.30392157     0.94935452     0.42564718
     0.30392157     0.98506880     0.42564718
     0.32352941     0.02078309     0.42564718
     0.32352941     0.05649738     0.42564718
     0.32352941     0.09221166     0.42564718
     0.32352941     0.12792595     0.42564718
     0.32352941     0.16364023     0.42564718
     0.32352941     0.19935452     0.42564718
     0.32352941     0.23506880     0.42564718
     0.32352941     0.27078309     0.42564718
     0.32352941     0.30649738     0.42564718
     0.32352941     0.34221166     0.42564718
     0.32352941     0.37792595     0.42564718
     0.32352941     0.41364023     0.42564718
     0.32352941     0.44935452     0.42564718
     0.32352941     0.48506880     0.42564718
     0.32352941     0.52078309     0.42564718
     0.32352941     0.55649738     0.42564718
     0.32352941     0.59221166     0.42564718
     0.32352941     0.62792595     0.42564718
     0.32352941     0.66364023     0.42564718
     0.32352941     0.69935452     0.42564718
     0.32352941     0.73506880     0.42564718
     0.32352941     0.77078309     0.42564718
     0.32352941     0.80649738     0.42564718
     0.32352941     0.84221166     0.42564718
     0.32352941     0.87792595     0.42564718
     0.32352941     0.91364023     0.42564718
     0.32352941     0.94935452     0.42564718
     0.32352941     0.98506880     0.42564718
     0.34313725     0.02078309     0.42564718
     0.34313725     0.05649738     0.42564718
     0.34313725     0.09221166     0.42564718
     0.34313725     0.12792595     0.42564718
     0.34313725     0.16364023     0.42564718
     0.34313725     0.19935452     0.42564718
     0.34313725     0.23506880     0.42564718
     0.34313725     0.27078309     0.42564718
     0.34313725     0.30649738     0.42564718
     0.34313725     0.34221166     0.42564718
     0.34313725     0.37792595     0.42564718
     0.34313725     0.41364023     0.42564718
     0.34313725     0.44935452     0.42564718
     0.34313725     0.48506880     0.42564718
     0.34313725     0.52078309     0.42564718
     0.34313725     0.55649738     0.42564718
     0.34313725     0.59221166     0.42564718
     0.34313725     0.62792595     0.42564718
     0.34313725     0.66364023     0.42564718
     0.34313725     0.69935452     0.42564718
     0.34313725     0.73506880     0.42564718
     0.34313725     0.77078309     0.42564718
     0.34313725     0.80649738     0.42564718
     0.34313725     0.84221166     0.42564718
     0.34313725     0.87792595     0.42564718
     0.34313725     0.91364023     0.42564718
     0.34313725     0.94935452     0.42564718
     0.34313725     0.98506880     0.42564718
     0.36274510     0.02078309     0.42564718
     0.36274510     0.05649738     0.42564718
     0.36274510     0.09221166     0.42564718
     0.36274510     0.12792595     0.42564718
     0.36274510     0.16364023     0.42564718
     0.36274510     0.19935452     0.42564718
     0.36274510     0.23506880     0.42564718
     0.36274510     0.27078309     0.42564718
     0.36274510     0.30649738     0.42564718
     0.36274510     0.34221166     0.42564718
     0.36274510     0.37792595     0.42564718
     0.36274510     0.41364023     0.42564718
     0.36274510     0.44935452     0.42564718
     0.36274510     0.48506880     0.42564718
     0.36274510     0.52078309     0.42564718
     0.36274510     0.55649738     0.42564718
     0.36274510     0.59221166     0.42564718
     0.36274510     0.62792595     0.42564718
     0.36274510     0.66364023     0.42564718
     0.36274510     0.69935452     0.42564718
     0.36274510     0.73506880     0.42564718
     0.36274510     0.77078309     0.42564718
     0.36274510     0.80649738     0.42564718
     0.36274510     0.84221166     0.42564718
     0.36274510     0.87792595     0.42564718
     0.36274510     0.91364023     0.42564718
     0.36274510     0.94935452     0.42564718
     0.36274510     0.98506880     0.42564718
     0.38235294     0.02078309     0.42564718
     0.38235294     0.05649738     0.42564718
     0.38235294     0.09221166     0.42564718
     0.38235294     0.12792595     0.42564718
     0.38235294     0.16364023     0.42564718
     0.38235294     0.19935452     0.42564718
     0.38235294     0.23506880     0.42564718
     0.38235294     0.27078309     0.42564718
     0.38235294     0.30649738     0.42564718
     0.38235294     0.34221166     0.42564718
     0.38235294     0.37792595     0.42564718
     0.38235294     0.41364023     0.42564718
     0.38235294     0.44935452     0.42564718
     0.38235294     0.48506880     0.42564718
     0.38235294     0.52078309     0.42564718
     0.38235294     0.55649738     0.42564718
     0.38235294     0.59221166     0.42564718
     0.38235294     0.62792595     0.42564718
     0.38235294     0.66364023     0.42564718
     0.38235294     0.69935452     0.42564718
     0.38235294     0.73506880     0.42564718
     0.38235294     0.77078309     0.42564718
     0.38235294     0.80649738     0.42564718
     0.38235294     0.84221166     0.42564718
     0.38235294     0.87792595     0.42564718
     0.38235294     0.91364023     0.42564718
     0.38235294     0.94935452     0.42564718
     0.38235294     0.98506880     0.42564718
     0.40196078     0.02078309     0.42564718
     0.40196078     0.05649738     0.42564718
     0.40196078     0.09221166     0.42564718
     0.40196078     0.12792595     0.42564718
     0.40196078     0.16364023     0.42564718
     0.40196078     0.19935452     0.42564718
     0.40196078     0.23506880     0.42564718
     0.40196078     0.27078309     0.42564718
     0.40196078     0.30649738     0.42564718
     0.40196078     0.34221166     0.42564718
     0.40196078     0.37792595     0.42564718
     0.40196078     0.41364023     0.42564718
     0.40196078     0.44935452     0.42564718
     0.40196078     0.48506880     0.42564718
     0.40196078     0.52078309     0.42564718
     0.40196078     0.55649738     0.42564718
     0.40196078     0.59221166     0.42564718
     0.40196078     0.62792595     0.42564718
     0.40196078     0.66364023     0.42564718
     0.40196078     0.69935452     0.42564718
     0.40196078     0.73506880     0.42564718
     0.40196078     0.77078309     0.42564718
     0.40196078     0.80649738     0.42564718
     0.40196078     0.84221166     0.42564718
     0.40196078     0.87792595     0.42564718
     0.40196078     0.91364023     0.42564718
     0.40196078     0.94935452     0.42564718
     0.40196078     0.98506880     0.42564718
     0.42156863     0.02078309     0.42564718
     0.42156863     0.05649738     0.42564718
     0.42156863     0.09221166     0.42564718
     0.42156863     0.12792595     0.42564718
     0.42156863     0.16364023     0.42564718
     0.42156863     0.19935452     0.42564718
     0.42156863     0.23506880     0.42564718
     0.42156863     0.27078309     0.42564718
     0.42156863     0.30649738     0.42564718
     0.42156863     0.34221166     0.42564718
     0.42156863     0.37792595     0.42564718
     0.42156863     0.41364023     0.42564718
     0.42156863     0.44935452     0.42564718
     0.42156863     0.48506880     0.42564718
     0.42156863     0.52078309     0.42564718
     0.42156863     0.55649738     0.42564718
     0.42156863     0.59221166     0.42564718
     0.42156863     0.62792595     0.42564718
     0.42156863     0.66364023     0.42564718
     0.42156863     0.69935452     0.42564718
     0.42156863     0.73506880     0.42564718
     0.42156863     0.77078309     0.42564718
     0.42156863     0.80649738     0.42564718
     0.42156863     0.84221166     0.42564718
     0.42156863     0.87792595     0.42564718
     0.42156863     0.91364023     0.42564718
     0.42156863     0.94935452     0.42564718
     0.42156863     0.98506880     0.42564718
     0.44117647     0.02078309     0.42564718
     0.44117647     0.05649738     0.42564718
     0.44117647     0.09221166     0.42564718
     0.44117647     0.12792595     0.42564718
     0.44117647     0.16364023     0.42564718
     0.44117647     0.19935452     0.42564718
     0.44117647     0.23506880     0.42564718
     0.44117647     0.27078309     0.42564718
     0.44117647     0.30649738     0.42564718
     0.44117647     0.34221166     0.42564718
     0.44117647     0.37792595     0.42564718
     0.44117647     0.41364023     0.42564718
     0.44117647     0.44935452     0.42564718
     0.44117647     0.48506880     0.42564718
     0.44117647     0.52078309     0.42564718
     0.44117647     0.55649738     0.42564718
     0.44117647     0.59221166     0.42564718
     0.44117647     0.62792595     0.42564718
     0.44117647     0.66364023     0.42564718
     0.44117647     0.69935452     0.42564718
     0.44117647     0.73506880     0.42564718
     0.44117647     0.77078309     0.42564718
     0.44117647     0.80649738     0.42564718
     0.44117647     0.84221166     0.42564718
     0.44117647     0.87792595     0.42564718
     0.44117647     0.91364023     0.42564718
     0.44117647     0.94935452     0.42564718
     0.44117647     0.98506880     0.42564718
     0.46078431     0.02078309     0.42564718
     0.46078431     0.05649738     0.42564718
     0.46078431     0.09221166     0.42564718