Generated by Twist2D
    1.0
     135.17698503       0.00000000       0.00000000
       0.00000000      97.47069923       0.00000000
       0.00000000       0.00000000      20.00000000
    P
    7220
Direct
     0.01219512     0.02645121     0.42564718
     0.01219512     0.07190575     0.42564718
     0.01219512     0.11736030     0.42564718
     0.01219512     0.16281484     0.42564718
     0.01219512     0.20826939     0.42564718
     0.01219512     0.25372393     0.42564718
     0.01219512     0.29917848     0.42564718
     0.01219512     0.34463302     0.42564718
     0.01219512     0.39008757     0.42564718
     0.01219512     0.43554211     0.42564718
     0.01219512     0.48099666     0.42564718
     0.01219512     0.52645121     0.42564718
     0.01219512     0.57190575     0.42564718
     0.01219512     0.61736030     0.42564718
     0.01219512     0.66281484     0.42564718
     0.01219512     0.70826939     0.42564718
     0.01219512     0.75372393     0.42564718
     0.01219512     0.79917848     0.42564718
     0.01219512     0.84463302     0.42564718
     0.01219512     0.89008757     0.42564718
     0.01219512     0.93554211     0.42564718
     0.01219512     0.98099666     0.42564718
     0.03658537     0.02645121     0.42564718
     0.03658537     0.07190575     0.42564718
     0.03658537     0.11736030     0.42564718
     0.03658537     0.16281484     0.42564718
     0.03658537     0.20826939     0.42564718
     0.03658537     0.25372393     0.42564718
     0.03658537     0.29917848     0.42564718
     0.03658537     0.34463302     0.42564718
     0.03658537     0.39008757     0.42564718
     0.03658537     0.43554211     0.42564718
     0.03658537     0.48099666     0.42564718
     0.03658537     0.52645121     0.42564718
     0.03658537     0.57190575     0.42564718
     0.03658537     0.61736030     0.42564718
     0.03658537     0.66281484     0.42564718
     0.03658537     0.70826939     0.42564718
     0.03658537     0.75372393     0.42564718
     0.03658537     0.79917848     0.42564718
     0.03658537     0.84463302     0.42564718
     0.03658537     0.89008757     0.42564718
     0.03658537     0.93554211     0.42564718
     0.03658537     0.98099666     0.42564718
     0.06097561     0.02645121     0.42564718
     0.06097561     0.07190575     0.42564718
     0.06097561     0.11736030     0.42564718
     0.06097561     0.16281484     0.42564718
     0.06097561     0.20826939     0.42564718
     0.06097561     0.25372393     0.42564718
     0.06097561     0.29917848     0.42564718
     0.06097561     0.34463302     0.42564718
     0.06097561     0.39008757     0.42564718
     0.06097561     0.43554211     0.42564718
     0.06097561     0.48099666     0.42564718
     0.06097561     0.52645121     0.42564718
     0.06097561     0.57190575     0.42564718
     0.06097561     0.61736030     0.42564718
     0.06097561     0.66281484     0.42564718
     0.06097561     0.70826939     0.42564718
     0.06097561     0.75372393     0.42564718
     0.06097561     0.79917848     0.42564718
     0.06097561     0.84463302     0.42564718
     0.06097561     0.89008757     0.42564718
     0.06097561     0.93554211     0.42564718
     0.06097561     0.98099666     0.42564718
     0.08536585     0.02645121     0.42564718
     0.08536585     0.07190575     0.42564718
     0.08536585     0.11736030     0.42564718
     0.08536585     0.16281484     0.42564718
     0.08536585     0.20826939     0.42564718
     0.08536585     0.25372393     0.42564718
     0.08536585     0.29917848     0.42564718
     0.08536585     0.34463302     0.42564718
     0.08536585     0.39008757     0.42564718
     0.08536585     0.43554211     0.42564718
     0.08536585     0.48099666     0.42564718
     0.08536585     0.52645121     0.42564718
     0.08536585     0.57190575     0.42564718
     0.08536585     0.61736030     0.42564718
     0.08536585     0.66281484     0.42564718
     0.08536585     0.70826939     0.42564718
     0.08536585     0.75372393     0.42564718
     0.08536585     0.79917848     0.42564718
     0.08536585     0.84463302     0.42564718
     0.08536585     0.89008757     0.42564718
     0.08536585     0.93554211     0.42564718
     0.08536585     0.98099666     0.42564718
     0.10975610     0.02645121     0.42564718
     0.10975610     0.07190575     0.42564718
     0.10975610     0.11736030     0.42564718
     0.10975610     0.16281484     0.42564718
     0.10975610     0.20826939     0.42564718
     0.10975610     0.25372393     0.42564718
     0.10975610     0.29917848     0.42564718
     0.10975610     0.34463302     0.42564718
     0.10975610     0.39008757     0.42564718
     0.10975610     0.43554211     0.42564718
     0.10975610     0.48099666     0.42564718
     0.10975610     0.52645121     0.42564718
     0.10975610     0.57190575     0.42564718
     0.10975610     0.61736030     0.42564718
     0.10975610     0.66281484     0.42564718
     0.10975610     0.70826939     0.42564718
     0.10975610     0.75372393     0.42564718
     0.10975610     0.79917848     0.42564718
     0.10975610     0.84463302     0.42564718
     0.10975610     0.89008757     0.42564718
     0.10975610     0.93554211     0.42564718
     0.10975610     0.98099666     0.42564718
     0.13414634     0.02645121     0.42564718
     0.13414634     0.07190575     0.42564718
     0.13414634     0.11736030     0.42564718
     0.13414634     0.16281484     0.42564718
     0.13414634     0.20826939     0.42564718
     0.13414634     0.25372393     0.42564718
     0.13414634     0.29917848     0.42564718
     0.13414634     0.34463302     0.42564718
     0.13414634     0.39008757     0.42564718
     0.13414634     0.43554211     0.42564718
     0.13414634     0.48099666     0.42564718
     0.13414634     0.52645121     0.42564718
     0.13414634     0.57190575     0.42564718
     0.13414634     0.61736030     0.42564718
     0.13414634     0.66281484     0.42564718
     0.13414634     0.70826939     0.42564718
     0.13414634     0.75372393     0.42564718
     0.13414634     0.79917848     0.42564718
     0.13414634     0.84463302     0.42564718
     0.13414634     0.89008757     0.42564718
     0.13414634     0.93554211     0.42564718
     0.13414634     0.98099666     0.42564718
     0.15853659     0.02645121     0.42564718
     0.15853659     0.07190575     0.42564718
     0.15853659     0.11736030     0.42564718
     0.15853659     0.16281484     0.42564718
     0.15853659     0.20826939     0.42564718
     0.15853659     0.25372393     0.42564718
     0.15853659     0.29917848     0.42564718
     0.15853659     0.34463302     0.42564718
     0.15853659     0.39008757     0.42564718
     0.15853659     0.43554211     0.42564718
     0.15853659     0.48099666     0.42564718
     0.15853659     0.52645121     0.42564718
     0.15853659     0.57190575     0.42564718
     0.15853659     0.61736030     0.42564718
     0.15853659     0.66281484     0.42564718
     0.15853659     0.70826939     0.42564718
     0.15853659     0.75372393     0.42564718
     0.15853659     0.79917848     0.42564718
     0.15853659     0.84463302     0.42564718
     0.15853659     0.89008757     0.42564718
     0.15853659     0.93554211     0.42564718
     0.15853659     0.98099666     0.42564718
     0.18292683     0.02645121     0.42564718
     0.18292683     0.07190575     0.42564718
     0.18292683     0.11736030     0.42564718
     0.18292683     0.16281484     0.42564718
     0.18292683     0.20826939     0.42564718
     0.18292683     0.25372393     0.42564718
     0.18292683     0.29917848     0.42564718
     0.18292683     0.34463302     0.42564718
     0.18292683     0.39008757     0.42564718
     0.18292683     0.43554211     0.42564718
     0.18292683     0.48099666     0.42564718
     0.18292683     0.52645121     0.42564718
     0.18292683     0.57190575     0.42564718
     0.18292683     0.61736030     0.42564718
     0.18292683     0.66281484     0.42564718
     0.18292683     0.70826939     0.42564718
     0.18292683     0.75372393     0.42564718
     0.18292683     0.79917848     0.42564718
     0.18292683     0.84463302     0.42564718
     0.18292683     0.89008757     0.42564718
     0.18292683     0.93554211     0.42564718
     0.18292683     0.98099666     0.42564718
     0.20731707     0.02645121     0.42564718
     0.20731707     0.07190575     0.42564718
     0.20731707     0.11736030     0.42564718
     0.20731707     0.16281484     0.42564718
     0.20731707     0.20826939     0.42564718
     0.20731707     0.25372393     0.42564718
     0.20731707     0.29917848     0.42564718
     0.20731707     0.34463302     0.42564718
     0.20731707     0.39008757     0.42564718
     0.20731707     0.43554211     0.42564718
     0.20731707     0.48099666     0.42564718
     0.20731707     0.52645121     0.42564718
     0.20731707     0.57190575     0.42564718
     0.20731707     0.61736030     0.42564718
     0.20731707     0.66281484     0.42564718
     0.20731707     0.70826939     0.42564718
     0.20731707     0.75372393     0.42564718
     0.20731707     0.79917848     0.42564718
     0.20731707     0.84463302     0.42564718
     0.20731707     0.89008757     0.42564718
     0.20731707     0.93554211     0.42564718
     0.20731707     0.98099666     0.42564718
     0.23170732     0.02645121     0.42564718
     0.23170732     0.07190575     0.42564718
     0.23170732     0.11736030     0.42564718
     0.23170732     0.16281484     0.42564718
     0.23170732     0.20826939     0.42564718
     0.23170732     0.25372393     0.42564718
     0.23170732     0.29917848     0.42564718
     0.23170732     0.34463302     0.42564718
     0.23170732     0.39008757     0.42564718
     0.23170732     0.43554211     0.42564718
     0.23170732     0.48099666     0.42564718
     0.23170732     0.52645121     0.42564718
     0.23170732     0.57190575     0.42564718
     0.23170732     0.61736030     0.42564718
     0.23170732     0.66281484     0.42564718
     0.23170732     0.70826939     0.42564718
     0.23170732     0.75372393     0.42564718
     0.23170732     0.79917848     0.42564718
     0.23170732     0.84463302     0.42564718
     0.23170732     0.89008757     0.42564718
     0.23170732     0.93554211     0.42564718
     0.23170732     0.98099666     0.42564718
     0.25609756     0.02645121     0.42564718
     0.25609756     0.07190575     0.42564718
     0.25609756     0.11736030     0.42564718
     0.25609756     0.16281484     0.42564718
     0.25609756     0.20826939     0.42564718
     0.25609756     0.25372393     0.42564718
     0.25609756     0.29917848     0.42564718
     0.25609756     0.34463302     0.42564718
     0.25609756     0.39008757     0.42564718
     0.25609756     0.43554211     0.42564718
     0.25609756     0.48099666     0.42564718
     0.25609756     0.52645121     0.42564718
     0.25609756     0.57190575     0.42564718
     0.25609756     0.61736030     0.42564718
     0.25609756     0.66281484     0.42564718
     0.25609756     0.70826939     0.42564718
     0.25609756     0.75372393     0.42564718
     0.25609756     0.79917848     0.42564718
     0.25609756     0.84463302     0.42564718
     0.25609756     0.89008757     0.42564718
     0.25609756     0.93554211     0.42564718
     0.25609756     0.98099666     0.42564718
     0.28048780     0.02645121     0.42564718
     0.28048780     0.07190575     0.42564718
     0.28048780     0.11736030     0.42564718
     0.28048780     0.16281484     0.42564718
     0.28048780     0.20826939     0.42564718
     0.28048780     0.25372393     0.42564718
     0.28048780     0.29917848     0.42564718
     0.28048780     0.34463302     0.42564718
     0.28048780     0.39008757     0.42564718
     0.28048780     0.43554211     0.42564718
     0.28048780     0.48099666     0.42564718
     0.28048780     0.52645121     0.42564718
     0.28048780     0.57190575     0.42564718
     0.28048780     0.61736030     0.42564718
     0.28048780     0.66281484     0.42564718
     0.28048780     0.70826939     0.42564718
     0.28048780     0.75372393     0.42564718
     0.28048780     0.79917848     0.42564718
     0.28048780     0.84463302     0.42564718
     0.28048780     0.89008757     0.42564718
     0.28048780     0.93554211     0.42564718
     0.28048780     0.98099666     0.42564718
     0.30487805     0.02645121     0.42564718
     0.30487805     0.07190575     0.42564718
     0.30487805     0.11736030     0.42564718
     0.30487805     0.16281484     0.42564718
     0.30487805     0.20826939     0.42564718
     0.30487805     0.25372393     0.42564718
     0.30487805     0.29917848     0.42564718
     0.30487805     0.34463302     0.42564718
     0.30487805     0.39008757     0.42564718
     0.30487805     0.43554211     0.42564718
     0.30487805     0.48099666     0.42564718
     0.30487805     0.52645121     0.42564718
     0.30487805     0.57190575     0.42564718
     0.30487805     0.61736030     0.42564718
     0.30487805     0.66281484     0.42564718
     0.30487805     0.70826939     0.42564718
     0.30487805     0.75372393     0.42564718
     0.30487805     0.79917848     0.42564718
     0.30487805     0.84463302     0.42564718
     0.30487805     0.89008757     0.42564718
     0.30487805     0.93554211     0.42564718
     0.30487805     0.98099666     0.42564718
     0.32926829     0.02645121     0.42564718
     0.32926829     0.07190575     0.42564718
     0.32926829     0.11736030     0.42564718
     0.32926829     0.16281484     0.42564718
     0.32926829     0.20826939     0.42564718
     0.32926829     0.25372393     0.42564718
     0.32926829     0.29917848     0.42564718
     0.32926829     0.34463302     0.42564718
     0.32926829     0.39008757     0.42564718
     0.32926829     0.43554211     0.42564718
     0.32926829     0.48099666     0.42564718
     0.32926829     0.52645121     0.42564718
     0.32926829     0.57190575     0.42564718
     0.32926829     0.61736030     0.42564718
     0.32926829     0.66281484     0.42564718
     0.32926829     0.70826939     0.42564718
     0.32926829     0.75372393     0.42564718
     0.32926829     0.79917848     0.42564718
     0.32926829     0.84463302     0.42564718
     0.32926829     0.89008757     0.42564718
     0.32926829     0.93554211     0.42564718
     0.32926829     0.98099666     0.42564718
     0.35365854     0.02645121     0.42564718
     0.35365854     0.07190575     0.42564718
     0.35365854     0.11736030     0.42564718
     0.35365854     0.16281484     0.42564718
     0.35365854     0.20826939     0.42564718
     0.35365854     0.25372393     0.42564718
     0.35365854     0.29917848     0.42564718
     0.35365854     0.34463302     0.42564718
     0.35365854     0.39008757     0.42564718
     0.35365854     0.43554211     0.42564718
     0.35365854     0.48099666     0.42564718
     0.35365854     0.52645121     0.42564718
     0.35365854     0.57190575     0.42564718
     0.35365854     0.61736030     0.42564718
     0.35365854     0.66281484     0.42564718
     0.35365854     0.70826939     0.42564718
     0.35365854     0.75372393     0.42564718
     0.35365854     0.79917848     0.42564718
     0.35365854     0.84463302     0.42564718
     0.35365854     0.89008757     0.42564718
     0.35365854     0.93554211     0.42564718
     0.35365854     0.98099666     0.42564718
     0.37804878     0.02645121     0.42564718
     0.37804878     0.07190575     0.42564718
     0.37804878     0.11736030     0.42564718
     0.37804878     0.16281484     0.42564718
     0.37804878     0.20826939     0.42564718
     0.37804878     0.25372393     0.42564718
     0.37804878     0.29917848     0.42564718
     0.37804878     0.34463302     0.42564718
     0.37804878     0.39008757     0.42564718
     0.37804878     0.43554211     0.42564718
     0.37804878     0.48099666     0.42564718
     0.37804878     0.52645121     0.42564718
     0.37804878     0.57190575     0.42564718
     0.37804878     0.61736030     0.42564718
     0.37804878     0.66281484     0.42564718
     0.37804878     0.70826939     0.42564718
     0.37804878     0.75372393     0.42564718
     0.37804878     0.79917848     0.42564718
     0.37804878     0.84463302     0.42564718
     0.37804878     0.89008757     0.42564718
     0.37804878     0.93554211     0.42564718
     0.37804878     0.98099666     0.42564718
     0.40243902     0.02645121     0.42564718
     0.40243902     0.07190575     0.42564718
     0.40243902     0.11736030     0.42564718
     0.40243902     0.16281484     0.42564718
     0.40243902     0.20826939     0.42564718
     0.40243902     0.25372393     0.42564718
     0.40243902     0.29917848     0.42564718
     0.40243902     0.34463302     0.42564718
     0.40243902     0.39008757     0.42564718
     0.40243902     0.43554211     0.42564718
     0.40243902     0.48099666     0.42564718
     0.40243902     0.52645121     0.42564718
     0.40243902     0.57190575     0.42564718
     0.40243902     0.61736030     0.42564718
     0.40243902     0.66281484     0.42564718
     0.40243902     0.70826939     0.42564718
     0.40243902     0.75372393     0.42564718
     0.40243902     0.79917848     0.42564718
     0.40243902     0.84463302     0.42564718
     0.40243902     0.89008757     0.42564718
     0.40243902     0.93554211     0.42564718
     0.40243902     0.98099666     0.42564718
     0.42682927     0.02645121     0.42564718
     0.42682927     0.07190575     0.42564718
     0.42682927     0.11736030     0.42564718
     0.42682927     0.16281484     0.42564718
     0.42682927     0.20826939     0.42564718
     0.42682927     0.25372393     0.42564718
     0.42682927     0.29917848     0.42564718
     0.42682927     0.34463302     0.42564718
     0.42682927     0.39008757     0.42564718
     0.42682927     0.43554211     0.42564718
     0.42682927     0.48099666     0.42564718
     0.42682927     0.52645121     0.42564718
     0.42682927     0.57190575     0.42564718
     0.42682927     0.61736030     0.42564718
     0.42682927     0.66281484     0.42564718
     0.42682927     0.70826939     0.42564718
     0.42682927     0.75372393     0.42564718
     0.42682927     0.79917848     0.42564718
     0.42682927     0.84463302     0.42564718
     0.42682927     0.89008757     0.42564718
     0.42682927     0.93554211     0.42564718
     0.42682927     0.98099666     0.42564718
     0.45121951     0.02645121     0.42564718
     0.45121951     0.07190575     0.42564718
     0.45121951     0.11736030     0.42564718
     0.45121951     0.16281484     0.42564718
     0.45121951     0.20826939     0.42564718
     0.45121951     0.25372393     0.42564718
     0.45121951     0.29917848     0.42564718
     0.45121951     0.34463302     0.42564718
     0.45121951     0.39008757     0.42564718
     0.45121951     0.43554211     0.42564718
     0.45121951     0.48099666     0.42564718
     0.45121951     0.52645121     0.42564718
     0.45121951     0.57190575     0.42564718
     0.45121951     0.61736030     0.42564718
     0.45121951     0.66281484     0.42564718
     0.45121951     0.70826939     0.42564718
     0.45121951     0.75372393     0.42564718
     0.45121951     0.79917848     0.42564718
     0.45121951     0.84463302     0.42564718
     0.45121951     0.89008757     0.42564718
     0.45121951     0.93554211     0.42564718
     0.45121951     0.98099666     0.42564718
     0.47560976     0.02645121     0.42564718
     0.47560976     0.07190575     0.42564718
     0.47560976     0.11736030     0.42564718
     0.47560976     0.16281484     0.42564718
     0.47560976     0.20826939     0.42564718
     0.47560976     0.25372393     0.42564718
     0.47560976     0.29917848     0.42564718
     0.47560976     0.34463302     0.42564718
     0.47560976     0.39008757     0.42564718
     0.47560976     0.43554211     0.42564718
     0.47560976     0.48099666     0.42564718
     0.47560976     0.52645121     0.42564718
     0.47560976     0.57190575     0.42564718
     0.47560976     0.61736030     0.42564718
     0.47560976     0.66281484     0.42564718
     0.47560976     0.70826939     0.42564718
     0.47560976     0.75372393     0.42564718
     0.47560976     0.79917848     0.42564718
     0.47560976     0.84463302     0.42564718
     0.47560976     0.89008757     0.42564718
     0.47560976     0.93554211     0.42564718
     0.47560976     0.98099666     0.42564718
     0.50000000     0.02645121     0.42564718
     0.50000000     0.07190575     0.42564718
     0.50000000     0.11736030     0.42564718
     0.50000000     0.16281484     0.42564718
     0.50000000     0.20826939     0.42564718
     0.50000000     0.25372393     0.42564718
     0.50000000     0.29917848     0.42564718
     0.50000000     0.34463302     0.42564718
     0.50000000     0.39008757     0.42564718
     0.50000000     0.43554211     0.42564718
     0.50000000     0.48099666     0.42564718
     0.50000000     0.52645121     0.42564718
     0.50000000     0.57190575     0.42564718
     0.50000000     0.61736030     0.42564718
     0.50000000     0.66281484     0.42564718
     0.50000000     0.70826939     0.42564718
     0.50000000     0.75372393     0.42564718
     0.50000000     0.79917848     0.42564718
     0.50000000     0.84463302     0.42564718
     0.50000000     0.89008757     0.42564718
     0.50000000     0.93554211     0.42564718
     0.50000000     0.98099666     0.42564718
     0.52439024     0.02645121     0.42564718
     0.52439024     0.07190575     0.42564718
     0.52439024     0.11736030     0.42564718
     0.52439024     0.16281484     0.42564718
     0.52439024     0.20826939     0.42564718
     0.52439024     0.25372393     0.42564718
     0.52439024     0.29917848     0.42564718
     0.52439024     0.34463302     0.42564718
     0.52439024     0.39008757     0.42564718
     0.52439024     0.43554211     0.42564718
     0.52439024     0.48099666     0.42564718
     0.52439024     0.52645121     0.42564718
     0.52439024     0.57190575     0.42564718
     0.52439024     0.61736030     0.42564718
     0.52439024     0.66281484     0.42564718
     0.52439024     0.70826939     0.42564718
     0.52439024     0.75372393     0.42564718
     0.52439024     0.79917848     0.42564718
     0.52439024     0.84463302     0.42564718
     0.52439024     0.89008757     0.42564718
     0.52439024     0.93554211     0.42564718
     0.52439024     0.98099666     0.42564718
     0.54878049     0.02645121     0.42564718
     0.54878049     0.07190575     0.42564718
     0.54878049     0.11736030     0.42564718
     0.54878049     0.16281484     0.42564718
     0.54878049     0.20826939     0.42564718
     0.54878049     0.25372393     0.42564718
     0.54878049     0.29917848     0.42564718
     0.54878049     0.34463302     0.42564718
     0.54878049     0.39008757     0.42564718
     0.54878049     0.43554211     0.42564718
     0.54878049     0.48099666     0.42564718
     0.54878049     0.52645121     0.42564718
     0.54878049     0.57190575     0.42564718
     0.54878049     0.61736030     0.42564718
     0.54878049     0.66281484     0.42564718
     0.54878049     0.70826939     0.42564718
     0.54878049     0.75372393     0.42564718
     0.54878049     0.79917848     0.42564718
     0.54878049     0.84463302     0.42564718
     0.54878049     0.89008757     0.42564718
     0.54878049     0.93554211     0.42564718
     0.54878049     0.98099666     0.42564718
     0.57317073     0.02645121     0.42564718
     0.57317073     0.07190575     0.42564718
     0.57317073     0.11736030     0.42564718
     0.57317073     0.16281484     0.42564718
     0.57317073     0.20826939     0.42564718
     0.57317073     0.25372393     0.42564718
     0.57317073     0.29917848     0.42564718
     0.57317073     0.34463302     0.42564718
     0.57317073     0.39008757     0.42564718
     0.57317073     0.43554211     0.42564718
     0.57317073     0.48099666     0.42564718
     0.57317073     0.52645121     0.42564718
     0.57317073     0.57190575     0.42564718
     0.57317073     0.61736030     0.42564718
     0.57317073     0.66281484     0.42564718
     0.57317073     0.70826939     0.42564718
     0.57317073     0.75372393     0.42564718
     0.57317073     0.79917848     0.42564718
     0.57317073     0.84463302     0.42564718
     0.57317073     0.89008757     0.42564718
     0.57317073     0.93554211     0.42564718
     0.57317073     0.98099666     0.42564718
     0.59756098     0.02645121     0.42564718
     0.59756098     0.07190575     0.42564718
     0.59756098     0.11736030     0.42564718
     0.59756098     0.16281484     0.42564718
     0.59756098     0.20826939     0.42564718
     0.59756098     0.25372393     0.42564718
     0.59756098     0.29917848     0.42564718
     0.59756098     0.34463302     0.42564718
     0.59756098     0.39008757     0.42564718
     0.59756098     0.43554211     0.42564718
     0.59756098     0.48099666     0.42564718
     0.59756098     0.52645121     0.42564718
     0.59756098     0.57190575     0.42564718
     0.59756098     0.61736030     0.42564718
     0.59756098     0.66281484     0.42564718
     0.59756098     0.70826939     0.42564718
     0.59756098     0.75372393     0.42564718
     0.59756098     0.79917848     0.42564718
     0.59756098     0.84463302     0.42564718
     0.59756098     0.89008757     0.42564718
     0.59756098     0.93554211     0.42564718
     0.59756098     0.98099666     0.42564718
     0.62195122     0.02645121     0.42564718
     0.62195122     0.07190575     0.42564718
     0.62195122     0.11736030     0.42564718
     0.62195122     0.16281484     0.42564718
     0.62195122     0.20826939     0.42564718
     0.62195122     0.25372393     0.42564718
     0.62195122     0.29917848     0.42564718
     0.62195122     0.34463302     0.42564718
     0.62195122     0.39008757     0.42564718
     0.62195122     0.43554211     0.42564718
     0.62195122     0.48099666     0.42564718
     0.62195122     0.52645121     0.42564718
     0.62195122     0.57190575     0.42564718
     0.62195122     0.61736030     0.42564718
     0.62195122     0.66281484     0.42564718
     0.62195122     0.70826939     0.42564718
     0.62195122     0.75372393     0.42564718
     0.62195122     0.79917848     0.42564718
     0.62195122     0.84463302     0.42564718
     0.62195122     0.89008757     0.42564718
     0.62195122     0.93554211     0.42564718
     0.62195122     0.98099666     0.42564718
     0.64634146     0.02645121     0.42564718
     0.64634146     0.07190575     0.42564718
     0.64634146     0.11736030     0.42564718
     0.64634146     0.16281484     0.42564718
     0.64634146     0.20826939     0.42564718
     0.64634146     0.25372393     0.42564718
     0.64634146     0.29917848     0.42564718
     0.64634146     0.34463302     0.42564718
     0.64634146     0.39008757     0.42564718
     0.64634146     0.43554211     0.42564718
     0.64634146     0.48099666     0.42564718
     0.64634146     0.52645121     0.42564718
     0.64634146     0.57190575     0.42564718
     0.64634146     0.61736030     0.42564718
     0.64634146     0.66281484     0.42564718
     0.64634146     0.70826939     0.42564718
     0.64634146     0.75372393     0.42564718
     0.64634146     0.79917848     0.42564718
     0.64634146     0.84463302     0.42564718
     0.64634146     0.89008757     0.42564718
     0.64634146     0.93554211     0.42564718
     0.64634146     0.98099666     0.42564718
     0.67073171     0.02645121     0.42564718
     0.67073171     0.07190575     0.42564718
     0.67073171     0.11736030     0.42564718
     0.67073171     0.16281484     0.42564718
     0.67073171     0.20826939     0.42564718
     0.67073171     0.25372393     0.42564718
     0.67073171     0.29917848     0.42564718
     0.67073171     0.34463302     0.42564718
     0.67073171     0.39008757     0.42564718
     0.67073171     0.43554211     0.42564718
     0.67073171     0.48099666     0.42564718
     0.67073171     0.52645121     0.42564718
     0.67073171     0.57190575     0.42564718
     0.67073171     0.61736030     0.42564718
     0.67073171     0.66281484     0.42564718
     0.67073171     0.70826939     0.42564718
     0.67073171     0.75372393     0.42564718
     0.67073171     0.79917848     0.42564718
     0.67073171     0.84463302     0.42564718
     0.67073171     0.89008757     0.42564718
     0.67073171     0.93554211     0.42564718
     0.67073171     0.98099666     0.42564718
     0.69512195     0.02645121     0.42564718
     0.69512195     0.07190575     0.42564718
     0.69512195     0.11736030     0.42564718
     0.69512195     0.16281484     0.42564718
     0.69512195     0.20826939     0.42564718
     0.69512195     0.25372393     0.42564718
     0.69512195     0.29917848     0.42564718
     0.69512195     0.34463302     0.42564718
     0.69512195     0.39008757     0.42564718
     0.69512195     0.43554211     0.42564718
     0.69512195     0.48099666     0.42564718
     0.69512195     0.52645121     0.42564718
     0.69512195     0.57190575     0.42564718
     0.69512195     0.61736030     0.42564718
     0.69512195     0.66281484     0.42564718
     0.69512195     0.70826939     0.42564718
     0.69512195     0.75372393     0.42564718
     0.69512195     0.79917848     0.42564718
     0.69512195     0.84463302     0.42564718
     0.69512195     0.89008757     0.42564718
     0.69512195     0.93554211     0.42564718
     0.69512195     0.98099666     0.42564718
     0.71951220     0.02645121     0.42564718
     0.71951220     0.07190575     0.42564718
     0.71951220     0.11736030     0.42564718
     0.71951220     0.16281484     0.42564718
     0.71951220     0.20826939     0.42564718
     0.71951220     0.25372393     0.42564718
     0.71951220     0.29917848     0.42564718
     0.71951220     0.34463302     0.42564718
     0.71951220     0.39008757     0.42564718