Generated by Twist2D
    1.0
     121.98898649       0.00000000       0.00000000
       0.00000000      88.60972658       0.00000000
       0.00000000       0.00000000      20.00000000
    P
    5924
Direct
     0.01351351     0.02909633     0.42564718
     0.01351351     0.07909633     0.42564718
     0.01351351     0.12909633     0.42564718
     0.01351351     0.17909633     0.42564718
     0.01351351     0.22909633     0.42564718
     0.01351351     0.27909633     0.42564718
     0.01351351     0.32909633     0.42564718
     0.01351351     0.37909633     0.42564718
     0.01351351     0.42909633     0.42564718
     0.01351351     0.47909633     0.42564718
     0.01351351     0.52909633     0.42564718
     0.01351351     0.57909633     0.42564718
     0.01351351     0.62909633     0.42564718
     0.01351351     0.67909633     0.42564718
     0.01351351     0.72909633     0.42564718
     0.01351351     0.77909633     0.42564718
     0.01351351     0.82909633     0.42564718
     0.01351351     0.87909633     0.42564718
     0.01351351     0.92909633     0.42564718
     0.01351351     0.97909633     0.42564718
     0.04054054     0.02909633     0.42564718
     0.04054054     0.07909633     0.42564718
     0.04054054     0.12909633     0.42564718
     0.04054054     0.17909633     0.42564718
     0.04054054     0.22909633     0.42564718
     0.04054054     0.27909633     0.42564718
     0.04054054     0.32909633     0.42564718
     0.04054054     0.37909633     0.42564718
     0.04054054     0.42909633     0.42564718
     0.04054054     0.47909633     0.42564718
     0.04054054     0.52909633     0.42564718
     0.04054054     0.57909633     0.42564718
     0.04054054     0.62909633     0.42564718
     0.04054054     0.67909633     0.42564718
     0.04054054     0.72909633     0.42564718
     0.04054054     0.77909633     0.42564718
     0.04054054     0.82909633     0.42564718
     0.04054054     0.87909633     0.42564718
     0.04054054     0.92909633     0.42564718
     0.04054054     0.97909633     0.42564718
     0.06756757     0.02909633     0.42564718
     0.06756757     0.07909633     0.42564718
     0.06756757     0.12909633     0.42564718
     0.06756757     0.17909633     0.42564718
     0.06756757     0.22909633     0.42564718
     0.06756757     0.27909633     0.42564718
     0.06756757     0.32909633     0.42564718
     0.06756757     0.37909633     0.42564718
     0.06756757     0.42909633     0.42564718
     0.06756757     0.47909633     0.42564718
     0.06756757     0.52909633     0.42564718
     0.06756757     0.57909633     0.42564718
     0.06756757     0.62909633     0.42564718
     0.06756757     0.67909633     0.42564718
     0.06756757     0.72909633     0.42564718
     0.06756757     0.77909633     0.42564718
     0.06756757     0.82909633     0.42564718
     0.06756757     0.87909633     0.42564718
     0.06756757     0.92909633     0.42564718
     0.06756757     0.97909633     0.42564718
     0.09459459     0.02909633     0.42564718
     0.09459459     0.07909633     0.42564718
     0.09459459     0.12909633     0.42564718
     0.09459459     0.17909633     0.42564718
     0.09459459     0.22909633     0.42564718
     0.09459459     0.27909633     0.42564718
     0.09459459     0.32909633     0.42564718
     0.09459459     0.37909633     0.42564718
     0.09459459     0.42909633     0.42564718
     0.09459459     0.47909633     0.42564718
     0.09459459     0.52909633     0.42564718
     0.09459459     0.57909633     0.42564718
     0.09459459     0.62909633     0.42564718
     0.09459459     0.67909633     0.42564718
     0.09459459     0.72909633     0.42564718
     0.09459459     0.77909633     0.42564718
     0.09459459     0.82909633     0.42564718
     0.09459459     0.87909633     0.42564718
     0.09459459     0.92909633     0.42564718
     0.09459459     0.97909633     0.42564718
     0.12162162     0.02909633     0.42564718
     0.12162162     0.07909633     0.42564718
     0.12162162     0.12909633     0.42564718
     0.12162162     0.17909633     0.42564718
     0.12162162     0.22909633     0.42564718
     0.12162162     0.27909633     0.42564718
     0.12162162     0.32909633     0.42564718
     0.12162162     0.37909633     0.42564718
     0.12162162     0.42909633     0.42564718
     0.12162162     0.47909633     0.42564718
     0.12162162     0.52909633     0.42564718
     0.12162162     0.57909633     0.42564718
     0.12162162     0.62909633     0.42564718
     0.12162162     0.67909633     0.42564718
     0.12162162     0.72909633     0.42564718
     0.12162162     0.77909633     0.42564718
     0.12162162     0.82909633     0.42564718
     0.12162162     0.87909633     0.42564718
     0.12162162     0.92909633     0.42564718
     0.12162162     0.97909633     0.42564718
     0.14864865     0.02909633     0.42564718
     0.14864865     0.07909633     0.42564718
     0.14864865     0.12909633     0.42564718
     0.14864865     0.17909633     0.42564718
     0.14864865     0.22909633     0.42564718
     0.14864865     0.27909633     0.42564718
     0.14864865     0.32909633     0.42564718
     0.14864865     0.37909633     0.42564718
     0.14864865     0.42909633     0.42564718
     0.14864865     0.47909633     0.42564718
     0.14864865     0.52909633     0.42564718
     0.14864865     0.57909633     0.42564718
     0.14864865     0.62909633     0.42564718
     0.14864865     0.67909633     0.42564718
     0.14864865     0.72909633     0.42564718
     0.14864865     0.77909633     0.42564718
     0.14864865     0.82909633     0.42564718
     0.14864865     0.87909633     0.42564718
     0.14864865     0.92909633     0.42564718
     0.14864865     0.97909633     0.42564718
     0.17567568     0.02909633     0.42564718
     0.17567568     0.07909633     0.42564718
     0.17567568     0.12909633     0.42564718
     0.17567568     0.17909633     0.42564718
     0.17567568     0.22909633     0.42564718
     0.17567568     0.27909633     0.42564718
     0.17567568     0.32909633     0.42564718
     0.17567568     0.37909633     0.42564718
     0.17567568     0.42909633     0.42564718
     0.17567568     0.47909633     0.42564718
     0.17567568     0.52909633     0.42564718
     0.17567568     0.57909633     0.42564718
     0.17567568     0.62909633     0.42564718
     0.17567568     0.67909633     0.42564718
     0.17567568     0.72909633     0.42564718
     0.17567568     0.77909633     0.42564718
     0.17567568     0.82909633     0.42564718
     0.17567568     0.87909633     0.42564718
     0.17567568     0.92909633     0.42564718
     0.17567568     0.97909633     0.42564718
     0.20270270     0.02909633     0.42564718
     0.20270270     0.07909633     0.42564718
     0.20270270     0.12909633     0.42564718
     0.20270270     0.17909633     0.42564718
     0.20270270     0.22909633     0.42564718
     0.20270270     0.27909633     0.42564718
     0.20270270     0.32909633     0.42564718
     0.20270270     0.37909633     0.42564718
     0.20270270     0.42909633     0.42564718
     0.20270270     0.47909633     0.42564718
     0.20270270     0.52909633     0.42564718
     0.20270270     0.57909633     0.42564718
     0.20270270     0.62909633     0.42564718
     0.20270270     0.67909633     0.42564718
     0.20270270     0.72909633     0.42564718
     0.20270270     0.77909633     0.42564718
     0.20270270     0.82909633     0.42564718
     0.20270270     0.87909633     0.42564718
     0.20270270     0.92909633     0.42564718
     0.20270270     0.97909633     0.42564718
     0.22972973     0.02909633     0.42564718
     0.22972973     0.07909633     0.42564718
     0.22972973     0.12909633     0.42564718
     0.22972973     0.17909633     0.42564718
     0.22972973     0.22909633     0.42564718
     0.22972973     0.27909633     0.42564718
     0.22972973     0.32909633     0.42564718
     0.22972973     0.37909633     0.42564718
     0.22972973     0.42909633     0.42564718
     0.22972973     0.47909633     0.42564718
     0.22972973     0.52909633     0.42564718
     0.22972973     0.57909633     0.42564718
     0.22972973     0.62909633     0.42564718
     0.22972973     0.67909633     0.42564718
     0.22972973     0.72909633     0.42564718
     0.22972973     0.77909633     0.42564718
     0.22972973     0.82909633     0.42564718
     0.22972973     0.87909633     0.42564718
     0.22972973     0.92909633     0.42564718
     0.22972973     0.97909633     0.42564718
     0.25675676     0.02909633     0.42564718
     0.25675676     0.07909633     0.42564718
     0.25675676     0.12909633     0.42564718
     0.25675676     0.17909633     0.42564718
     0.25675676     0.22909633     0.42564718
     0.25675676     0.27909633     0.42564718
     0.25675676     0.32909633     0.42564718
     0.25675676     0.37909633     0.42564718
     0.25675676     0.42909633     0.42564718
     0.25675676     0.47909633     0.42564718
     0.25675676     0.52909633     0.42564718
     0.25675676     0.57909633     0.42564718
     0.25675676     0.62909633     0.42564718
     0.25675676     0.67909633     0.42564718
     0.25675676     0.72909633     0.42564718
     0.25675676     0.77909633     0.42564718
     0.25675676     0.82909633     0.42564718
     0.25675676     0.87909633     0.42564718
     0.25675676     0.92909633     0.42564718
     0.25675676     0.97909633     0.42564718
     0.28378378     0.02909633     0.42564718
     0.28378378     0.07909633     0.42564718
     0.28378378     0.12909633     0.42564718
     0.28378378     0.17909633     0.42564718
     0.28378378     0.22909633     0.42564718
     0.28378378     0.27909633     0.42564718
     0.28378378     0.32909633     0.42564718
     0.28378378     0.37909633     0.42564718
     0.28378378     0.42909633     0.42564718
     0.28378378     0.47909633     0.42564718
     0.28378378     0.52909633     0.42564718
     0.28378378     0.57909633     0.42564718
     0.28378378     0.62909633     0.42564718
     0.28378378     0.67909633     0.42564718
     0.28378378     0.72909633     0.42564718
     0.28378378     0.77909633     0.42564718
     0.28378378     0.82909633     0.42564718
     0.28378378     0.87909633     0.42564718
     0.28378378     0.92909633     0.42564718
     0.28378378     0.97909633     0.42564718
     0.31081081     0.02909633     0.42564718
     0.31081081     0.07909633     0.42564718
     0.31081081     0.12909633     0.42564718
     0.31081081     0.17909633     0.42564718
     0.31081081     0.22909633     0.42564718
     0.31081081     0.27909633     0.42564718
     0.31081081     0.32909633     0.42564718
     0.31081081     0.37909633     0.42564718
     0.31081081     0.42909633     0.42564718
     0.31081081     0.47909633     0.42564718
     0.31081081     0.52909633     0.42564718
     0.31081081     0.57909633     0.42564718
     0.31081081     0.62909633     0.42564718
     0.31081081     0.67909633     0.42564718
     0.31081081     0.72909633     0.42564718
     0.31081081     0.77909633     0.42564718
     0.31081081     0.82909633     0.42564718
     0.31081081     0.87909633     0.42564718
     0.31081081     0.92909633     0.42564718
     0.31081081     0.97909633     0.42564718
     0.33783784     0.02909633     0.42564718
     0.33783784     0.07909633     0.42564718
     0.33783784     0.12909633     0.42564718
     0.33783784     0.17909633     0.42564718
     0.33783784     0.22909633     0.42564718
     0.33783784     0.27909633     0.42564718
     0.33783784     0.32909633     0.42564718
     0.33783784     0.37909633     0.42564718
     0.33783784     0.42909633     0.42564718
     0.33783784     0.47909633     0.42564718
     0.33783784     0.52909633     0.42564718
     0.33783784     0.57909633     0.42564718
     0.33783784     0.62909633     0.42564718
     0.33783784     0.67909633     0.42564718
     0.33783784     0.72909633     0.42564718
     0.33783784     0.77909633     0.42564718
     0.33783784     0.82909633     0.42564718
     0.33783784     0.87909633     0.42564718
     0.33783784     0.92909633     0.42564718
     0.33783784     0.97909633     0.42564718
     0.36486486     0.02909633     0.42564718
     0.36486486     0.07909633     0.42564718
     0.36486486     0.12909633     0.42564718
     0.36486486     0.17909633     0.42564718
     0.36486486     0.22909633     0.42564718
     0.36486486     0.27909633     0.42564718
     0.36486486     0.32909633     0.42564718
     0.36486486     0.37909633     0.42564718
     0.36486486     0.42909633     0.42564718
     0.36486486     0.47909633     0.42564718
     0.36486486     0.52909633     0.42564718
     0.36486486     0.57909633     0.42564718
     0.36486486     0.62909633     0.42564718
     0.36486486     0.67909633     0.42564718
     0.36486486     0.72909633     0.42564718
     0.36486486     0.77909633     0.42564718
     0.36486486     0.82909633     0.42564718
     0.36486486     0.87909633     0.42564718
     0.36486486     0.92909633     0.42564718
     0.36486486     0.97909633     0.42564718
     0.39189189     0.02909633     0.42564718
     0.39189189     0.07909633     0.42564718
     0.39189189     0.12909633     0.42564718
     0.39189189     0.17909633     0.42564718
     0.39189189     0.22909633     0.42564718
     0.39189189     0.27909633     0.42564718
     0.39189189     0.32909633     0.42564718
     0.39189189     0.37909633     0.42564718
     0.39189189     0.42909633     0.42564718
     0.39189189     0.47909633     0.42564718
     0.39189189     0.52909633     0.42564718
     0.39189189     0.57909633     0.42564718
     0.39189189     0.62909633     0.42564718
     0.39189189     0.67909633     0.42564718
     0.39189189     0.72909633     0.42564718
     0.39189189     0.77909633     0.42564718
     0.39189189     0.82909633     0.42564718
     0.39189189     0.87909633     0.42564718
     0.39189189     0.92909633     0.42564718
     0.39189189     0.97909633     0.42564718
     0.41891892     0.02909633     0.42564718
     0.41891892     0.07909633     0.42564718
     0.41891892     0.12909633     0.42564718
     0.41891892     0.17909633     0.42564718
     0.41891892     0.22909633     0.42564718
     0.41891892     0.27909633     0.42564718
     0.41891892     0.32909633     0.42564718
     0.41891892     0.37909633     0.42564718
     0.41891892     0.42909633     0.42564718
     0.41891892     0.47909633     0.42564718
     0.41891892     0.52909633     0.42564718
     0.41891892     0.57909633     0.42564718
     0.41891892     0.62909633     0.42564718
     0.41891892     0.67909633     0.42564718
     0.41891892     0.72909633     0.42564718
     0.41891892     0.77909633     0.42564718
     0.41891892     0.82909633     0.42564718
     0.41891892     0.87909633     0.42564718
     0.41891892     0.92909633     0.42564718
     0.41891892     0.97909633     0.42564718
     0.44594595     0.02909633     0.42564718
     0.44594595     0.07909633     0.42564718
     0.44594595     0.12909633     0.42564718
     0.44594595     0.17909633     0.42564718
     0.44594595     0.22909633     0.42564718
     0.44594595     0.27909633     0.42564718
     0.44594595     0.32909633     0.42564718
     0.44594595     0.37909633     0.42564718
     0.44594595     0.42909633     0.42564718
     0.44594595     0.47909633     0.42564718
     0.44594595     0.52909633     0.42564718
     0.44594595     0.57909633     0.42564718
     0.44594595     0.62909633     0.42564718
     0.44594595     0.67909633     0.42564718
     0.44594595     0.72909633     0.42564718
     0.44594595     0.77909633     0.42564718
     0.44594595     0.82909633     0.42564718
     0.44594595     0.87909633     0.42564718
     0.44594595     0.92909633     0.42564718
     0.44594595     0.97909633     0.42564718
     0.47297297     0.02909633     0.42564718
     0.47297297     0.07909633     0.42564718
     0.47297297     0.12909633     0.42564718
     0.47297297     0.17909633     0.42564718
     0.47297297     0.22909633     0.42564718
     0.47297297     0.27909633     0.42564718
     0.47297297     0.32909633     0.42564718
     0.47297297     0.37909633     0.42564718
     0.47297297     0.42909633     0.42564718
     0.47297297     0.47909633     0.42564718
     0.47297297     0.52909633     0.42564718
     0.47297297     0.57909633     0.42564718
     0.47297297     0.62909633     0.42564718
     0.47297297     0.67909633     0.42564718
     0.47297297     0.72909633     0.42564718
     0.47297297     0.77909633     0.42564718
     0.47297297     0.82909633     0.42564718
     0.47297297     0.87909633     0.42564718
     0.47297297     0.92909633     0.42564718
     0.47297297     0.97909633     0.42564718
     0.50000000     0.02909633     0.42564718
     0.50000000     0.07909633     0.42564718
     0.50000000     0.12909633     0.42564718
     0.50000000     0.17909633     0.42564718
     0.50000000     0.22909633     0.42564718
     0.50000000     0.27909633     0.42564718
     0.50000000     0.32909633     0.42564718
     0.50000000     0.37909633     0.42564718
     0.50000000     0.42909633     0.42564718
     0.50000000     0.47909633     0.42564718
     0.50000000     0.52909633     0.42564718
     0.50000000     0.57909633     0.42564718
     0.50000000     0.62909633     0.42564718
     0.50000000     0.67909633     0.42564718
     0.50000000     0.72909633     0.42564718
     0.50000000     0.77909633     0.42564718
     0.50000000     0.82909633     0.42564718
     0.50000000     0.87909633     0.42564718
     0.50000000     0.92909633     0.42564718
     0.50000000     0.97909633     0.42564718
     0.52702703     0.02909633     0.42564718
     0.52702703     0.07909633     0.42564718
     0.52702703     0.12909633     0.42564718
     0.52702703     0.17909633     0.42564718
     0.52702703     0.22909633     0.42564718
     0.52702703     0.27909633     0.42564718
     0.52702703     0.32909633     0.42564718
     0.52702703     0.37909633     0.42564718
     0.52702703     0.42909633     0.42564718
     0.52702703     0.47909633     0.42564718
     0.52702703     0.52909633     0.42564718
     0.52702703     0.57909633     0.42564718
     0.52702703     0.62909633     0.42564718
     0.52702703     0.67909633     0.42564718
     0.52702703     0.72909633     0.42564718
     0.52702703     0.77909633     0.42564718
     0.52702703     0.82909633     0.42564718
     0.52702703     0.87909633     0.42564718
     0.52702703     0.92909633     0.42564718
     0.52702703     0.97909633     0.42564718
     0.55405405     0.02909633     0.42564718
     0.55405405     0.07909633     0.42564718
     0.55405405     0.12909633     0.42564718
     0.55405405     0.17909633     0.42564718
     0.55405405     0.22909633     0.42564718
     0.55405405     0.27909633     0.42564718
     0.55405405     0.32909633     0.42564718
     0.55405405     0.37909633     0.42564718
     0.55405405     0.42909633     0.42564718
     0.55405405     0.47909633     0.42564718
     0.55405405     0.52909633     0.42564718
     0.55405405     0.57909633     0.42564718
     0.55405405     0.62909633     0.42564718
     0.55405405     0.67909633     0.42564718
     0.55405405     0.72909633     0.42564718
     0.55405405     0.77909633     0.42564718
     0.55405405     0.82909633     0.42564718
     0.55405405     0.87909633     0.42564718
     0.55405405     0.92909633     0.42564718
     0.55405405     0.97909633     0.42564718
     0.58108108     0.02909633     0.42564718
     0.58108108     0.07909633     0.42564718
     0.58108108     0.12909633     0.42564718
     0.58108108     0.17909633     0.42564718
     0.58108108     0.22909633     0.42564718
     0.58108108     0.27909633     0.42564718
     0.58108108     0.32909633     0.42564718
     0.58108108     0.37909633     0.42564718
     0.58108108     0.42909633     0.42564718
     0.58108108     0.47909633     0.42564718
     0.58108108     0.52909633     0.42564718
     0.58108108     0.57909633     0.42564718
     0.58108108     0.62909633     0.42564718
     0.58108108     0.67909633     0.42564718
     0.58108108     0.72909633     0.42564718
     0.58108108     0.77909633     0.42564718
     0.58108108     0.82909633     0.42564718
     0.58108108     0.87909633     0.42564718
     0.58108108     0.92909633     0.42564718
     0.58108108     0.97909633     0.42564718
     0.60810811     0.02909633     0.42564718
     0.60810811     0.07909633     0.42564718
     0.60810811     0.12909633     0.42564718
     0.60810811     0.17909633     0.42564718
     0.60810811     0.22909633     0.42564718
     0.60810811     0.27909633     0.42564718
     0.60810811     0.32909633     0.42564718
     0.60810811     0.37909633     0.42564718
     0.60810811     0.42909633     0.42564718
     0.60810811     0.47909633     0.42564718
     0.60810811     0.52909633     0.42564718
     0.60810811     0.57909633     0.42564718
     0.60810811     0.62909633     0.42564718
     0.60810811     0.67909633     0.42564718
     0.60810811     0.72909633     0.42564718
     0.60810811     0.77909633     0.42564718
     0.60810811     0.82909633     0.42564718
     0.60810811     0.87909633     0.42564718
     0.60810811     0.92909633     0.42564718
     0.60810811     0.97909633     0.42564718
     0.63513514     0.02909633     0.42564718
     0.63513514     0.07909633     0.42564718
     0.63513514     0.12909633     0.42564718
     0.63513514     0.17909633     0.42564718
     0.63513514     0.22909633     0.42564718
     0.63513514     0.27909633     0.42564718
     0.63513514     0.32909633     0.42564718
     0.63513514     0.37909633     0.42564718
     0.63513514     0.42909633     0.42564718
     0.63513514     0.47909633     0.42564718
     0.63513514     0.52909633     0.42564718
     0.63513514     0.57909633     0.42564718
     0.63513514     0.62909633     0.42564718
     0.63513514     0.67909633     0.42564718
     0.63513514     0.72909633     0.42564718
     0.63513514     0.77909633     0.42564718
     0.63513514     0.82909633     0.42564718
     0.63513514     0.87909633     0.42564718
     0.63513514     0.92909633     0.42564718
     0.63513514     0.97909633     0.42564718
     0.66216216     0.02909633     0.42564718
     0.66216216     0.07909633     0.42564718
     0.66216216     0.12909633     0.42564718
     0.66216216     0.17909633     0.42564718
     0.66216216     0.22909633     0.42564718
     0.66216216     0.27909633     0.42564718
     0.66216216     0.32909633     0.42564718
     0.66216216     0.37909633     0.42564718
     0.66216216     0.42909633     0.42564718
     0.66216216     0.47909633     0.42564718
     0.66216216     0.52909633     0.42564718
     0.66216216     0.57909633     0.42564718
     0.66216216     0.62909633     0.42564718
     0.66216216     0.67909633     0.42564718
     0.66216216     0.72909633     0.42564718
     0.66216216     0.77909633     0.42564718
     0.66216216     0.82909633     0.42564718
     0.66216216     0.87909633     0.42564718
     0.66216216     0.92909633     0.42564718
     0.66216216     0.97909633     0.42564718
     0.68918919     0.02909633     0.42564718
     0.68918919     0.07909633     0.42564718
     0.68918919     0.12909633     0.42564718
     0.68918919     0.17909633     0.42564718
     0.68918919     0.22909633     0.42564718
     0.68918919     0.27909633     0.42564718
     0.68918919     0.32909633     0.42564718
     0.68918919     0.37909633     0.42564718
     0.68918919     0.42909633     0.42564718
     0.68918919     0.47909633     0.42564718
     0.68918919     0.52909633     0.42564718
     0.68918919     0.57909633     0.42564718
     0.68918919     0.62909633     0.42564718
     0.68918919     0.67909633     0.42564718
     0.68918919     0.72909633     0.42564718
     0.68918919     0.77909633     0.42564718
     0.68918919     0.82909633     0.42564718
     0.68918919     0.87909633     0.42564718
     0.68918919     0.92909633     0.42564718
     0.68918919     0.97909633     0.42564718
     0.71621622     0.02909633     0.42564718
     0.71621622     0.07909633     0.42564718
     0.71621622     0.12909633     0.42564718
     0.71621622     0.17909633     0.42564718
     0.71621622     0.22909633     0.42564718
     0.71621622     0.27909633     0.42564718
     0.71621622     0.32909633     0.42564718
     0.71621622     0.37909633     0.42564718
     0.71621622     0.42909633     0.42564718
     0.71621622     0.47909633     0.42564718
     0.71621622     0.52909633     0.42564718
     0.71621622     0.57909633     0.42564718
     0.71621622     0.62909633     0.42564718
     0.71621622     0.67909633     0.42564718
     0.71621622     0.72909633     0.42564718
     0.71621622     0.77909633     0.42564718
     0.71621622     0.82909633     0.42564718
     0.71621622     0.87909633     0.42564718
     0.71621622     0.92909633     0.42564718
     0.71621622     0.97909633     0.42564718
     0.74324324     0.02909633     0.42564718
     0.74324324     0.07909633     0.42564718
     0.74324324     0.12909633     0.42564718
     0.74324324     0.17909633     0.42564718
     0.74324324     0.22909633     0.42564718
     0.74324324     0.27909633     0.42564718
     0.74324324     0.32909633     0.42564718
     0.74324324     0.37909633     0.42564718
     0.74324324     0.42909633     0.42564718
     0.74324324     0.47909633     0.42564718
     0.74324324     0.52909633     0.42564718
     0.74324324     0.57909633     0.42564718
     0.74324324     0.62909633     0.42564718
     0.74324324     0.67909633     0.42564718
     0.74324324     0.72909633     0.42564718
     0.74324324     0.77909633     0.42564718
     0.74324324     0.82909633     0.42564718
     0.74324324     0.87909633     0.42564718
     0.74324324     0.92909633     0.42564718
     0.74324324     0.97909633     0.42564718
     0.77027027     0.02909633     0.42564718
     0.77027027     0.07909633     0.42564718
     0.77027027     0.12909633     0.42564718
     0.77027027     0.17909633     0.42564718
     0.77027027     0.22909633     0.42564718
     0.77027027     0.27909633     0.42564718
     0.77027027     0.32909633     0.42564718
     0.77027027     0.37909633     0.42564718
     0.77027027     0.42909633     0.42564718
     0.77027027     0.47909633     0.42564718
     0.77027027     0.52909633     0.42564718
     0.77027027     0.57909633     0.42564718
     0.77027027     0.62909633     0.42564718
     0.77027027     0.67909633     0.42564718
     0.77027027     0.72909633     0.42564718
     0.77027027     0.77909633     0.42564718
     0.77027027     0.82909633     0.42564718
     0.77027027     0.87909633     0.42564718
     0.77027027     0.92909633     0.42564718
     0.77027027     0.97909633     0.42564718
     0.79729730     0.02909633     0.42564718
     0.79729730     0.07909633     0.42564718
     0.79729730     0.12909633     0.42564718
     0.79729730     0.17909633     0.42564718
     0.79729730     0.22909633     0.42564718
     0.79729730     0.27909633     0.42564718
     0.79729730     0.32909633     0.42564718
     0.79729730     0.37909633     0.42564718
     0.79729730     0.42909633     0.42564718
     0.79729730     0.47909633     0.42564718
     0.79729730     0.52909633     0.42564718
     0.79729730     0.57909633     0.42564718
     0.79729730     0.62909633     0.42564718
     0.79729730     0.67909633     0.42564718
     0.79729730     0.72909633     0.42564718
     0.79729730     0.77909633     0.42564718
     0.79729730     0.82909633     0.42564718
     0.79729730     0.87909633     0.42564718
     0.79729730     0.92909633     0.42564718
     0.79729730     0.97909633     0.42564718
     0.82432432     0.02909633     0.42564718
     0.82432432     0.07909633     0.42564718
     0.82432432     0.12909633     0.42564718
     0.82432432     0.17909633     0.42564718
     0.82432432     0.22909633     0.42564718
     0.82432432     0.27909633     0.42564718
     0.82432432     0.32909633     0.42564718
     0.82432432     0.37909633     0.42564718
     0.82432432     0.42909633     0.42564718
     0.82432432     0.47909633     0.42564718
     0.82432432     0.52909633     0.42564718
     0.82432432     0.57909633     0.42564718
     0.82432432     0.62909633     0.42564718
     0.82432432     0.67909633     0.42564718
     0.82432432     0.72909633     0.42564718
     0.82432432     0.77909633     0.42564718
     0.82432432     0.82909633     0.42564718
     0.82432432     0.87909633     0.42564718
     0.82432432     0.92909633     0.42564718
     0.82432432     0.97909633     0.42564718
     0.85135135     0.02909633     0.42564718
     0.85135135     0.07909633     0.42564718
     0.85135135     0.12909633     0.42564718
     0.85135135     0.17909633     0.42564718
     0.85135135     0.22909633     0.42564718
     0.85135135     0.27909633     0.42564718
     0.85135135     0.32909633     0.42564718
     0.85135135     0.37909633     0.42564718
     0.85135135     0.42909633     0.42564718
     0.85135135     0.47909633     0.42564718
     0.85135135     0.52909633     0.42564718
     0.85135135     0.57909633     0.42564718
     0.85135135     0.62909633     0.42564718
     0.85135135     0.67909633     0.42564718
     0.85135135     0.72909633     0.42564718
     0.85135135     0.77909633     0.42564718
     0.85135135     0.82909633     0.42564718
     0.85135135     0.87909633     0.42564718
     0.85135135     0.92909633     0.42564718
     0.85135135     0.97909633     0.42564718
     0.87837838     0.02909633     0.42564718
     0.87837838     0.07909633     0.42564718
     0.87837838     0.12909633     0.42564718
     0.87837838     0.17909633     0.42564718
     0.87837838     0.22909633     0.42564718
     0.87837838     0.27909633     0.42564718
     0.87837838     0.32909633     0.42564718