Generated by Twist2D
    1.0
     131.87998540       0.00000000       0.00000000
       0.00000000      97.47069923       0.00000000
       0.00000000       0.00000000      20.00000000
    P
    7044
Direct
     0.01250000     0.02645121     0.42564718
     0.01250000     0.07190575     0.42564718
     0.01250000     0.11736030     0.42564718
     0.01250000     0.16281484     0.42564718
     0.01250000     0.20826939     0.42564718
     0.01250000     0.25372393     0.42564718
     0.01250000     0.29917848     0.42564718
     0.01250000     0.34463302     0.42564718
     0.01250000     0.39008757     0.42564718
     0.01250000     0.43554211     0.42564718
     0.01250000     0.48099666     0.42564718
     0.01250000     0.52645121     0.42564718
     0.01250000     0.57190575     0.42564718
     0.01250000     0.61736030     0.42564718
     0.01250000     0.66281484     0.42564718
     0.01250000     0.70826939     0.42564718
     0.01250000     0.75372393     0.42564718
     0.01250000     0.79917848     0.42564718
     0.01250000     0.84463302     0.42564718
     0.01250000     0.89008757     0.42564718
     0.01250000     0.93554211     0.42564718
     0.01250000     0.98099666     0.42564718
     0.03750000     0.02645121     0.42564718
     0.03750000     0.07190575     0.42564718
     0.03750000     0.11736030     0.42564718
     0.03750000     0.16281484     0.42564718
     0.03750000     0.20826939     0.42564718
     0.03750000     0.25372393     0.42564718
     0.03750000     0.29917848     0.42564718
     0.03750000     0.34463302     0.42564718
     0.03750000     0.39008757     0.42564718
     0.03750000     0.43554211     0.42564718
     0.03750000     0.48099666     0.42564718
     0.03750000     0.52645121     0.42564718
     0.03750000     0.57190575     0.42564718
     0.03750000     0.61736030     0.42564718
     0.03750000     0.66281484     0.42564718
     0.03750000     0.70826939     0.42564718
     0.03750000     0.75372393     0.42564718
     0.03750000     0.79917848     0.42564718
     0.03750000     0.84463302     0.42564718
     0.03750000     0.89008757     0.42564718
     0.03750000     0.93554211     0.42564718
     0.03750000     0.98099666     0.42564718
     0.06250000     0.02645121     0.42564718
     0.06250000     0.07190575     0.42564718
     0.06250000     0.11736030     0.42564718
     0.06250000     0.16281484     0.42564718
     0.06250000     0.20826939     0.42564718
     0.06250000     0.25372393     0.42564718
     0.06250000     0.29917848     0.42564718
     0.06250000     0.34463302     0.42564718
     0.06250000     0.39008757     0.42564718
     0.06250000     0.43554211     0.42564718
     0.06250000     0.48099666     0.42564718
     0.06250000     0.52645121     0.42564718
     0.06250000     0.57190575     0.42564718
     0.06250000     0.61736030     0.42564718
     0.06250000     0.66281484     0.42564718
     0.06250000     0.70826939     0.42564718
     0.06250000     0.75372393     0.42564718
     0.06250000     0.79917848     0.42564718
     0.06250000     0.84463302     0.42564718
     0.06250000     0.89008757     0.42564718
     0.06250000     0.93554211     0.42564718
     0.06250000     0.98099666     0.42564718
     0.08750000     0.02645121     0.42564718
     0.08750000     0.07190575     0.42564718
     0.08750000     0.11736030     0.42564718
     0.08750000     0.16281484     0.42564718
     0.08750000     0.20826939     0.42564718
     0.08750000     0.25372393     0.42564718
     0.08750000     0.29917848     0.42564718
     0.08750000     0.34463302     0.42564718
     0.08750000     0.39008757     0.42564718
     0.08750000     0.43554211     0.42564718
     0.08750000     0.48099666     0.42564718
     0.08750000     0.52645121     0.42564718
     0.08750000     0.57190575     0.42564718
     0.08750000     0.61736030     0.42564718
     0.08750000     0.66281484     0.42564718
     0.08750000     0.70826939     0.42564718
     0.08750000     0.75372393     0.42564718
     0.08750000     0.79917848     0.42564718
     0.08750000     0.84463302     0.42564718
     0.08750000     0.89008757     0.42564718
     0.08750000     0.93554211     0.42564718
     0.08750000     0.98099666     0.42564718
     0.11250000     0.02645121     0.42564718
     0.11250000     0.07190575     0.42564718
     0.11250000     0.11736030     0.42564718
     0.11250000     0.16281484     0.42564718
     0.11250000     0.20826939     0.42564718
     0.11250000     0.25372393     0.42564718
     0.11250000     0.29917848     0.42564718
     0.11250000     0.34463302     0.42564718
     0.11250000     0.39008757     0.42564718
     0.11250000     0.43554211     0.42564718
     0.11250000     0.48099666     0.42564718
     0.11250000     0.52645121     0.42564718
     0.11250000     0.57190575     0.42564718
     0.11250000     0.61736030     0.42564718
     0.11250000     0.66281484     0.42564718
     0.11250000     0.70826939     0.42564718
     0.11250000     0.75372393     0.42564718
     0.11250000     0.79917848     0.42564718
     0.11250000     0.84463302     0.42564718
     0.11250000     0.89008757     0.42564718
     0.11250000     0.93554211     0.42564718
     0.11250000     0.98099666     0.42564718
     0.13750000     0.02645121     0.42564718
     0.13750000     0.07190575     0.42564718
     0.13750000     0.11736030     0.42564718
     0.13750000     0.16281484     0.42564718
     0.13750000     0.20826939     0.42564718
     0.13750000     0.25372393     0.42564718
     0.13750000     0.29917848     0.42564718
     0.13750000     0.34463302     0.42564718
     0.13750000     0.39008757     0.42564718
     0.13750000     0.43554211     0.42564718
     0.13750000     0.48099666     0.42564718
     0.13750000     0.52645121     0.42564718
     0.13750000     0.57190575     0.42564718
     0.13750000     0.61736030     0.42564718
     0.13750000     0.66281484     0.42564718
     0.13750000     0.70826939     0.42564718
     0.13750000     0.75372393     0.42564718
     0.13750000     0.79917848     0.42564718
     0.13750000     0.84463302     0.42564718
     0.13750000     0.89008757     0.42564718
     0.13750000     0.93554211     0.42564718
     0.13750000     0.98099666     0.42564718
     0.16250000     0.02645121     0.42564718
     0.16250000     0.07190575     0.42564718
     0.16250000     0.11736030     0.42564718
     0.16250000     0.16281484     0.42564718
     0.16250000     0.20826939     0.42564718
     0.16250000     0.25372393     0.42564718
     0.16250000     0.29917848     0.42564718
     0.16250000     0.34463302     0.42564718
     0.16250000     0.39008757     0.42564718
     0.16250000     0.43554211     0.42564718
     0.16250000     0.48099666     0.42564718
     0.16250000     0.52645121     0.42564718
     0.16250000     0.57190575     0.42564718
     0.16250000     0.61736030     0.42564718
     0.16250000     0.66281484     0.42564718
     0.16250000     0.70826939     0.42564718
     0.16250000     0.75372393     0.42564718
     0.16250000     0.79917848     0.42564718
     0.16250000     0.84463302     0.42564718
     0.16250000     0.89008757     0.42564718
     0.16250000     0.93554211     0.42564718
     0.16250000     0.98099666     0.42564718
     0.18750000     0.02645121     0.42564718
     0.18750000     0.07190575     0.42564718
     0.18750000     0.11736030     0.42564718
     0.18750000     0.16281484     0.42564718
     0.18750000     0.20826939     0.42564718
     0.18750000     0.25372393     0.42564718
     0.18750000     0.29917848     0.42564718
     0.18750000     0.34463302     0.42564718
     0.18750000     0.39008757     0.42564718
     0.18750000     0.43554211     0.42564718
     0.18750000     0.48099666     0.42564718
     0.18750000     0.52645121     0.42564718
     0.18750000     0.57190575     0.42564718
     0.18750000     0.61736030     0.42564718
     0.18750000     0.66281484     0.42564718
     0.18750000     0.70826939     0.42564718
     0.18750000     0.75372393     0.42564718
     0.18750000     0.79917848     0.42564718
     0.18750000     0.84463302     0.42564718
     0.18750000     0.89008757     0.42564718
     0.18750000     0.93554211     0.42564718
     0.18750000     0.98099666     0.42564718
     0.21250000     0.02645121     0.42564718
     0.21250000     0.07190575     0.42564718
     0.21250000     0.11736030     0.42564718
     0.21250000     0.16281484     0.42564718
     0.21250000     0.20826939     0.42564718
     0.21250000     0.25372393     0.42564718
     0.21250000     0.29917848     0.42564718
     0.21250000     0.34463302     0.42564718
     0.21250000     0.39008757     0.42564718
     0.21250000     0.43554211     0.42564718
     0.21250000     0.48099666     0.42564718
     0.21250000     0.52645121     0.42564718
     0.21250000     0.57190575     0.42564718
     0.21250000     0.61736030     0.42564718
     0.21250000     0.66281484     0.42564718
     0.21250000     0.70826939     0.42564718
     0.21250000     0.75372393     0.42564718
     0.21250000     0.79917848     0.42564718
     0.21250000     0.84463302     0.42564718
     0.21250000     0.89008757     0.42564718
     0.21250000     0.93554211     0.42564718
     0.21250000     0.98099666     0.42564718
     0.23750000     0.02645121     0.42564718
     0.23750000     0.07190575     0.42564718
     0.23750000     0.11736030     0.42564718
     0.23750000     0.16281484     0.42564718
     0.23750000     0.20826939     0.42564718
     0.23750000     0.25372393     0.42564718
     0.23750000     0.29917848     0.42564718
     0.23750000     0.34463302     0.42564718
     0.23750000     0.39008757     0.42564718
     0.23750000     0.43554211     0.42564718
     0.23750000     0.48099666     0.42564718
     0.23750000     0.52645121     0.42564718
     0.23750000     0.57190575     0.42564718
     0.23750000     0.61736030     0.42564718
     0.23750000     0.66281484     0.42564718
     0.23750000     0.70826939     0.42564718
     0.23750000     0.75372393     0.42564718
     0.23750000     0.79917848     0.42564718
     0.23750000     0.84463302     0.42564718
     0.23750000     0.89008757     0.42564718
     0.23750000     0.93554211     0.42564718
     0.23750000     0.98099666     0.42564718
     0.26250000     0.02645121     0.42564718
     0.26250000     0.07190575     0.42564718
     0.26250000     0.11736030     0.42564718
     0.26250000     0.16281484     0.42564718
     0.26250000     0.20826939     0.42564718
     0.26250000     0.25372393     0.42564718
     0.26250000     0.29917848     0.42564718
     0.26250000     0.34463302     0.42564718
     0.26250000     0.39008757     0.42564718
     0.26250000     0.43554211     0.42564718
     0.26250000     0.48099666     0.42564718
     0.26250000     0.52645121     0.42564718
     0.26250000     0.57190575     0.42564718
     0.26250000     0.61736030     0.42564718
     0.26250000     0.66281484     0.42564718
     0.26250000     0.70826939     0.42564718
     0.26250000     0.75372393     0.42564718
     0.26250000     0.79917848     0.42564718
     0.26250000     0.84463302     0.42564718
     0.26250000     0.89008757     0.42564718
     0.26250000     0.93554211     0.42564718
     0.26250000     0.98099666     0.42564718
     0.28750000     0.02645121     0.42564718
     0.28750000     0.07190575     0.42564718
     0.28750000     0.11736030     0.42564718
     0.28750000     0.16281484     0.42564718
     0.28750000     0.20826939     0.42564718
     0.28750000     0.25372393     0.42564718
     0.28750000     0.29917848     0.42564718
     0.28750000     0.34463302     0.42564718
     0.28750000     0.39008757     0.42564718
     0.28750000     0.43554211     0.42564718
     0.28750000     0.48099666     0.42564718
     0.28750000     0.52645121     0.42564718
     0.28750000     0.57190575     0.42564718
     0.28750000     0.61736030     0.42564718
     0.28750000     0.66281484     0.42564718
     0.28750000     0.70826939     0.42564718
     0.28750000     0.75372393     0.42564718
     0.28750000     0.79917848     0.42564718
     0.28750000     0.84463302     0.42564718
     0.28750000     0.89008757     0.42564718
     0.28750000     0.93554211     0.42564718
     0.28750000     0.98099666     0.42564718
     0.31250000     0.02645121     0.42564718
     0.31250000     0.07190575     0.42564718
     0.31250000     0.11736030     0.42564718
     0.31250000     0.16281484     0.42564718
     0.31250000     0.20826939     0.42564718
     0.31250000     0.25372393     0.42564718
     0.31250000     0.29917848     0.42564718
     0.31250000     0.34463302     0.42564718
     0.31250000     0.39008757     0.42564718
     0.31250000     0.43554211     0.42564718
     0.31250000     0.48099666     0.42564718
     0.31250000     0.52645121     0.42564718
     0.31250000     0.57190575     0.42564718
     0.31250000     0.61736030     0.42564718
     0.31250000     0.66281484     0.42564718
     0.31250000     0.70826939     0.42564718
     0.31250000     0.75372393     0.42564718
     0.31250000     0.79917848     0.42564718
     0.31250000     0.84463302     0.42564718
     0.31250000     0.89008757     0.42564718
     0.31250000     0.93554211     0.42564718
     0.31250000     0.98099666     0.42564718
     0.33750000     0.02645121     0.42564718
     0.33750000     0.07190575     0.42564718
     0.33750000     0.11736030     0.42564718
     0.33750000     0.16281484     0.42564718
     0.33750000     0.20826939     0.42564718
     0.33750000     0.25372393     0.42564718
     0.33750000     0.29917848     0.42564718
     0.33750000     0.34463302     0.42564718
     0.33750000     0.39008757     0.42564718
     0.33750000     0.43554211     0.42564718
     0.33750000     0.48099666     0.42564718
     0.33750000     0.52645121     0.42564718
     0.33750000     0.57190575     0.42564718
     0.33750000     0.61736030     0.42564718
     0.33750000     0.66281484     0.42564718
     0.33750000     0.70826939     0.42564718
     0.33750000     0.75372393     0.42564718
     0.33750000     0.79917848     0.42564718
     0.33750000     0.84463302     0.42564718
     0.33750000     0.89008757     0.42564718
     0.33750000     0.93554211     0.42564718
     0.33750000     0.98099666     0.42564718
     0.36250000     0.02645121     0.42564718
     0.36250000     0.07190575     0.42564718
     0.36250000     0.11736030     0.42564718
     0.36250000     0.16281484     0.42564718
     0.36250000     0.20826939     0.42564718
     0.36250000     0.25372393     0.42564718
     0.36250000     0.29917848     0.42564718
     0.36250000     0.34463302     0.42564718
     0.36250000     0.39008757     0.42564718
     0.36250000     0.43554211     0.42564718
     0.36250000     0.48099666     0.42564718
     0.36250000     0.52645121     0.42564718
     0.36250000     0.57190575     0.42564718
     0.36250000     0.61736030     0.42564718
     0.36250000     0.66281484     0.42564718
     0.36250000     0.70826939     0.42564718
     0.36250000     0.75372393     0.42564718
     0.36250000     0.79917848     0.42564718
     0.36250000     0.84463302     0.42564718
     0.36250000     0.89008757     0.42564718
     0.36250000     0.93554211     0.42564718
     0.36250000     0.98099666     0.42564718
     0.38750000     0.02645121     0.42564718
     0.38750000     0.07190575     0.42564718
     0.38750000     0.11736030     0.42564718
     0.38750000     0.16281484     0.42564718
     0.38750000     0.20826939     0.42564718
     0.38750000     0.25372393     0.42564718
     0.38750000     0.29917848     0.42564718
     0.38750000     0.34463302     0.42564718
     0.38750000     0.39008757     0.42564718
     0.38750000     0.43554211     0.42564718
     0.38750000     0.48099666     0.42564718
     0.38750000     0.52645121     0.42564718
     0.38750000     0.57190575     0.42564718
     0.38750000     0.61736030     0.42564718
     0.38750000     0.66281484     0.42564718
     0.38750000     0.70826939     0.42564718
     0.38750000     0.75372393     0.42564718
     0.38750000     0.79917848     0.42564718
     0.38750000     0.84463302     0.42564718
     0.38750000     0.89008757     0.42564718
     0.38750000     0.93554211     0.42564718
     0.38750000     0.98099666     0.42564718
     0.41250000     0.02645121     0.42564718
     0.41250000     0.07190575     0.42564718
     0.41250000     0.11736030     0.42564718
     0.41250000     0.16281484     0.42564718
     0.41250000     0.20826939     0.42564718
     0.41250000     0.25372393     0.42564718
     0.41250000     0.29917848     0.42564718
     0.41250000     0.34463302     0.42564718
     0.41250000     0.39008757     0.42564718
     0.41250000     0.43554211     0.42564718
     0.41250000     0.48099666     0.42564718
     0.41250000     0.52645121     0.42564718
     0.41250000     0.57190575     0.42564718
     0.41250000     0.61736030     0.42564718
     0.41250000     0.66281484     0.42564718
     0.41250000     0.70826939     0.42564718
     0.41250000     0.75372393     0.42564718
     0.41250000     0.79917848     0.42564718
     0.41250000     0.84463302     0.42564718
     0.41250000     0.89008757     0.42564718
     0.41250000     0.93554211     0.42564718
     0.41250000     0.98099666     0.42564718
     0.43750000     0.02645121     0.42564718
     0.43750000     0.07190575     0.42564718
     0.43750000     0.11736030     0.42564718
     0.43750000     0.16281484     0.42564718
     0.43750000     0.20826939     0.42564718
     0.43750000     0.25372393     0.42564718
     0.43750000     0.29917848     0.42564718
     0.43750000     0.34463302     0.42564718
     0.43750000     0.39008757     0.42564718
     0.43750000     0.43554211     0.42564718
     0.43750000     0.48099666     0.42564718
     0.43750000     0.52645121     0.42564718
     0.43750000     0.57190575     0.42564718
     0.43750000     0.61736030     0.42564718
     0.43750000     0.66281484     0.42564718
     0.43750000     0.70826939     0.42564718
     0.43750000     0.75372393     0.42564718
     0.43750000     0.79917848     0.42564718
     0.43750000     0.84463302     0.42564718
     0.43750000     0.89008757     0.42564718
     0.43750000     0.93554211     0.42564718
     0.43750000     0.98099666     0.42564718
     0.46250000     0.02645121     0.42564718
     0.46250000     0.07190575     0.42564718
     0.46250000     0.11736030     0.42564718
     0.46250000     0.16281484     0.42564718
     0.46250000     0.20826939     0.42564718
     0.46250000     0.25372393     0.42564718
     0.46250000     0.29917848     0.42564718
     0.46250000     0.34463302     0.42564718
     0.46250000     0.39008757     0.42564718
     0.46250000     0.43554211     0.42564718
     0.46250000     0.48099666     0.42564718
     0.46250000     0.52645121     0.42564718
     0.46250000     0.57190575     0.42564718
     0.46250000     0.61736030     0.42564718
     0.46250000     0.66281484     0.42564718
     0.46250000     0.70826939     0.42564718
     0.46250000     0.75372393     0.42564718
     0.46250000     0.79917848     0.42564718
     0.46250000     0.84463302     0.42564718
     0.46250000     0.89008757     0.42564718
     0.46250000     0.93554211     0.42564718
     0.46250000     0.98099666     0.42564718
     0.48750000     0.02645121     0.42564718
     0.48750000     0.07190575     0.42564718
     0.48750000     0.11736030     0.42564718
     0.48750000     0.16281484     0.42564718
     0.48750000     0.20826939     0.42564718
     0.48750000     0.25372393     0.42564718
     0.48750000     0.29917848     0.42564718
     0.48750000     0.34463302     0.42564718
     0.48750000     0.39008757     0.42564718
     0.48750000     0.43554211     0.42564718
     0.48750000     0.48099666     0.42564718
     0.48750000     0.52645121     0.42564718
     0.48750000     0.57190575     0.42564718
     0.48750000     0.61736030     0.42564718
     0.48750000     0.66281484     0.42564718
     0.48750000     0.70826939     0.42564718
     0.48750000     0.75372393     0.42564718
     0.48750000     0.79917848     0.42564718
     0.48750000     0.84463302     0.42564718
     0.48750000     0.89008757     0.42564718
     0.48750000     0.93554211     0.42564718
     0.48750000     0.98099666     0.42564718
     0.51250000     0.02645121     0.42564718
     0.51250000     0.07190575     0.42564718
     0.51250000     0.11736030     0.42564718
     0.51250000     0.16281484     0.42564718
     0.51250000     0.20826939     0.42564718
     0.51250000     0.25372393     0.42564718
     0.51250000     0.29917848     0.42564718
     0.51250000     0.34463302     0.42564718
     0.51250000     0.39008757     0.42564718
     0.51250000     0.43554211     0.42564718
     0.51250000     0.48099666     0.42564718
     0.51250000     0.52645121     0.42564718
     0.51250000     0.57190575     0.42564718
     0.51250000     0.61736030     0.42564718
     0.51250000     0.66281484     0.42564718
     0.51250000     0.70826939     0.42564718
     0.51250000     0.75372393     0.42564718
     0.51250000     0.79917848     0.42564718
     0.51250000     0.84463302     0.42564718
     0.51250000     0.89008757     0.42564718
     0.51250000     0.93554211     0.42564718
     0.51250000     0.98099666     0.42564718
     0.53750000     0.02645121     0.42564718
     0.53750000     0.07190575     0.42564718
     0.53750000     0.11736030     0.42564718
     0.53750000     0.16281484     0.42564718
     0.53750000     0.20826939     0.42564718
     0.53750000     0.25372393     0.42564718
     0.53750000     0.29917848     0.42564718
     0.53750000     0.34463302     0.42564718
     0.53750000     0.39008757     0.42564718
     0.53750000     0.43554211     0.42564718
     0.53750000     0.48099666     0.42564718
     0.53750000     0.52645121     0.42564718
     0.53750000     0.57190575     0.42564718
     0.53750000     0.61736030     0.42564718
     0.53750000     0.66281484     0.42564718
     0.53750000     0.70826939     0.42564718
     0.53750000     0.75372393     0.42564718
     0.53750000     0.79917848     0.42564718
     0.53750000     0.84463302     0.42564718
     0.53750000     0.89008757     0.42564718
     0.53750000     0.93554211     0.42564718
     0.53750000     0.98099666     0.42564718
     0.56250000     0.02645121     0.42564718
     0.56250000     0.07190575     0.42564718
     0.56250000     0.11736030     0.42564718
     0.56250000     0.16281484     0.42564718
     0.56250000     0.20826939     0.42564718
     0.56250000     0.25372393     0.42564718
     0.56250000     0.29917848     0.42564718
     0.56250000     0.34463302     0.42564718
     0.56250000     0.39008757     0.42564718
     0.56250000     0.43554211     0.42564718
     0.56250000     0.48099666     0.42564718
     0.56250000     0.52645121     0.42564718
     0.56250000     0.57190575     0.42564718
     0.56250000     0.61736030     0.42564718
     0.56250000     0.66281484     0.42564718
     0.56250000     0.70826939     0.42564718
     0.56250000     0.75372393     0.42564718
     0.56250000     0.79917848     0.42564718
     0.56250000     0.84463302     0.42564718
     0.56250000     0.89008757     0.42564718
     0.56250000     0.93554211     0.42564718
     0.56250000     0.98099666     0.42564718
     0.58750000     0.02645121     0.42564718
     0.58750000     0.07190575     0.42564718
     0.58750000     0.11736030     0.42564718
     0.58750000     0.16281484     0.42564718
     0.58750000     0.20826939     0.42564718
     0.58750000     0.25372393     0.42564718
     0.58750000     0.29917848     0.42564718
     0.58750000     0.34463302     0.42564718
     0.58750000     0.39008757     0.42564718
     0.58750000     0.43554211     0.42564718
     0.58750000     0.48099666     0.42564718
     0.58750000     0.52645121     0.42564718
     0.58750000     0.57190575     0.42564718
     0.58750000     0.61736030     0.42564718
     0.58750000     0.66281484     0.42564718
     0.58750000     0.70826939     0.42564718
     0.58750000     0.75372393     0.42564718
     0.58750000     0.79917848     0.42564718
     0.58750000     0.84463302     0.42564718
     0.58750000     0.89008757     0.42564718
     0.58750000     0.93554211     0.42564718
     0.58750000     0.98099666     0.42564718
     0.61250000     0.02645121     0.42564718
     0.61250000     0.07190575     0.42564718
     0.61250000     0.11736030     0.42564718
     0.61250000     0.16281484     0.42564718
     0.61250000     0.20826939     0.42564718
     0.61250000     0.25372393     0.42564718
     0.61250000     0.29917848     0.42564718
     0.61250000     0.34463302     0.42564718
     0.61250000     0.39008757     0.42564718
     0.61250000     0.43554211     0.42564718
     0.61250000     0.48099666     0.42564718
     0.61250000     0.52645121     0.42564718
     0.61250000     0.57190575     0.42564718
     0.61250000     0.61736030     0.42564718
     0.61250000     0.66281484     0.42564718
     0.61250000     0.70826939     0.42564718
     0.61250000     0.75372393     0.42564718
     0.61250000     0.79917848     0.42564718
     0.61250000     0.84463302     0.42564718
     0.61250000     0.89008757     0.42564718
     0.61250000     0.93554211     0.42564718
     0.61250000     0.98099666     0.42564718
     0.63750000     0.02645121     0.42564718
     0.63750000     0.07190575     0.42564718
     0.63750000     0.11736030     0.42564718
     0.63750000     0.16281484     0.42564718
     0.63750000     0.20826939     0.42564718
     0.63750000     0.25372393     0.42564718
     0.63750000     0.29917848     0.42564718
     0.63750000     0.34463302     0.42564718
     0.63750000     0.39008757     0.42564718
     0.63750000     0.43554211     0.42564718
     0.63750000     0.48099666     0.42564718
     0.63750000     0.52645121     0.42564718
     0.63750000     0.57190575     0.42564718
     0.63750000     0.61736030     0.42564718
     0.63750000     0.66281484     0.42564718
     0.63750000     0.70826939     0.42564718
     0.63750000     0.75372393     0.42564718
     0.63750000     0.79917848     0.42564718
     0.63750000     0.84463302     0.42564718
     0.63750000     0.89008757     0.42564718
     0.63750000     0.93554211     0.42564718
     0.63750000     0.98099666     0.42564718
     0.66250000     0.02645121     0.42564718
     0.66250000     0.07190575     0.42564718
     0.66250000     0.11736030     0.42564718
     0.66250000     0.16281484     0.42564718
     0.66250000     0.20826939     0.42564718
     0.66250000     0.25372393     0.42564718
     0.66250000     0.29917848     0.42564718
     0.66250000     0.34463302     0.42564718
     0.66250000     0.39008757     0.42564718
     0.66250000     0.43554211     0.42564718
     0.66250000     0.48099666     0.42564718
     0.66250000     0.52645121     0.42564718
     0.66250000     0.57190575     0.42564718
     0.66250000     0.61736030     0.42564718
     0.66250000     0.66281484     0.42564718
     0.66250000     0.70826939     0.42564718
     0.66250000     0.75372393     0.42564718
     0.66250000     0.79917848     0.42564718
     0.66250000     0.84463302     0.42564718
     0.66250000     0.89008757     0.42564718
     0.66250000     0.93554211     0.42564718
     0.66250000     0.98099666     0.42564718
     0.68750000     0.02645121     0.42564718
     0.68750000     0.07190575     0.42564718
     0.68750000     0.11736030     0.42564718
     0.68750000     0.16281484     0.42564718
     0.68750000     0.20826939     0.42564718
     0.68750000     0.25372393     0.42564718
     0.68750000     0.29917848     0.42564718
     0.68750000     0.34463302     0.42564718
     0.68750000     0.39008757     0.42564718
     0.68750000     0.43554211     0.42564718
     0.68750000     0.48099666     0.42564718
     0.68750000     0.52645121     0.42564718
     0.68750000     0.57190575     0.42564718
     0.68750000     0.61736030     0.42564718
     0.68750000     0.66281484     0.42564718
     0.68750000     0.70826939     0.42564718
     0.68750000     0.75372393     0.42564718
     0.68750000     0.79917848     0.42564718
     0.68750000     0.84463302     0.42564718
     0.68750000     0.89008757     0.42564718
     0.68750000     0.93554211     0.42564718
     0.68750000     0.98099666     0.42564718
     0.71250000     0.02645121     0.42564718
     0.71250000     0.07190575     0.42564718
     0.71250000     0.11736030     0.42564718
     0.71250000     0.16281484     0.42564718
     0.71250000     0.20826939     0.42564718
     0.71250000     0.25372393     0.42564718
     0.71250000     0.29917848     0.42564718
     0.71250000     0.34463302     0.42564718
     0.71250000     0.39008757     0.42564718
     0.71250000     0.43554211     0.42564718
     0.71250000     0.48099666     0.42564718
     0.71250000     0.52645121     0.42564718
     0.71250000     0.57190575     0.42564718
     0.71250000     0.61736030     0.42564718
     0.71250000     0.66281484     0.42564718
     0.71250000     0.70826939     0.42564718
     0.71250000     0.75372393     0.42564718
     0.71250000     0.79917848     0.42564718
     0.71250000     0.84463302     0.42564718
     0.71250000     0.89008757     0.42564718
     0.71250000     0.93554211     0.42564718
     0.71250000     0.98099666     0.42564718
     0.73750000     0.02645121     0.42564718
     0.73750000     0.07190575     0.42564718
     0.73750000     0.11736030     0.42564718
     0.73750000     0.16281484     0.42564718
     0.73750000     0.20826939     0.42564718
     0.73750000     0.25372393     0.42564718
     0.73750000     0.29917848     0.42564718
     0.73750000     0.34463302     0.42564718
     0.73750000     0.39008757     0.42564718