Generated by Twist2D
    1.0
     154.95898284       0.00000000       0.00000000
       0.00000000     106.33167189       0.00000000
       0.00000000       0.00000000      20.00000000
    P
    9028
Direct
     0.01063830     0.02424694     0.42564718
     0.01063830     0.06591361     0.42564718
     0.01063830     0.10758027     0.42564718
     0.01063830     0.14924694     0.42564718
     0.01063830     0.19091361     0.42564718
     0.01063830     0.23258027     0.42564718
     0.01063830     0.27424694     0.42564718
     0.01063830     0.31591361     0.42564718
     0.01063830     0.35758027     0.42564718
     0.01063830     0.39924694     0.42564718
     0.01063830     0.44091361     0.42564718
     0.01063830     0.48258027     0.42564718
     0.01063830     0.52424694     0.42564718
     0.01063830     0.56591361     0.42564718
     0.01063830     0.60758027     0.42564718
     0.01063830     0.64924694     0.42564718
     0.01063830     0.69091361     0.42564718
     0.01063830     0.73258027     0.42564718
     0.01063830     0.77424694     0.42564718
     0.01063830     0.81591361     0.42564718
     0.01063830     0.85758027     0.42564718
     0.01063830     0.89924694     0.42564718
     0.01063830     0.94091361     0.42564718
     0.01063830     0.98258027     0.42564718
     0.03191489     0.02424694     0.42564718
     0.03191489     0.06591361     0.42564718
     0.03191489     0.10758027     0.42564718
     0.03191489     0.14924694     0.42564718
     0.03191489     0.19091361     0.42564718
     0.03191489     0.23258027     0.42564718
     0.03191489     0.27424694     0.42564718
     0.03191489     0.31591361     0.42564718
     0.03191489     0.35758027     0.42564718
     0.03191489     0.39924694     0.42564718
     0.03191489     0.44091361     0.42564718
     0.03191489     0.48258027     0.42564718
     0.03191489     0.52424694     0.42564718
     0.03191489     0.56591361     0.42564718
     0.03191489     0.60758027     0.42564718
     0.03191489     0.64924694     0.42564718
     0.03191489     0.69091361     0.42564718
     0.03191489     0.73258027     0.42564718
     0.03191489     0.77424694     0.42564718
     0.03191489     0.81591361     0.42564718
     0.03191489     0.85758027     0.42564718
     0.03191489     0.89924694     0.42564718
     0.03191489     0.94091361     0.42564718
     0.03191489     0.98258027     0.42564718
     0.05319149     0.02424694     0.42564718
     0.05319149     0.06591361     0.42564718
     0.05319149     0.10758027     0.42564718
     0.05319149     0.14924694     0.42564718
     0.05319149     0.19091361     0.42564718
     0.05319149     0.23258027     0.42564718
     0.05319149     0.27424694     0.42564718
     0.05319149     0.31591361     0.42564718
     0.05319149     0.35758027     0.42564718
     0.05319149     0.39924694     0.42564718
     0.05319149     0.44091361     0.42564718
     0.05319149     0.48258027     0.42564718
     0.05319149     0.52424694     0.42564718
     0.05319149     0.56591361     0.42564718
     0.05319149     0.60758027     0.42564718
     0.05319149     0.64924694     0.42564718
     0.05319149     0.69091361     0.42564718
     0.05319149     0.73258027     0.42564718
     0.05319149     0.77424694     0.42564718
     0.05319149     0.81591361     0.42564718
     0.05319149     0.85758027     0.42564718
     0.05319149     0.89924694     0.42564718
     0.05319149     0.94091361     0.42564718
     0.05319149     0.98258027     0.42564718
     0.07446809     0.02424694     0.42564718
     0.07446809     0.06591361     0.42564718
     0.07446809     0.10758027     0.42564718
     0.07446809     0.14924694     0.42564718
     0.07446809     0.19091361     0.42564718
     0.07446809     0.23258027     0.42564718
     0.07446809     0.27424694     0.42564718
     0.07446809     0.31591361     0.42564718
     0.07446809     0.35758027     0.42564718
     0.07446809     0.39924694     0.42564718
     0.07446809     0.44091361     0.42564718
     0.07446809     0.48258027     0.42564718
     0.07446809     0.52424694     0.42564718
     0.07446809     0.56591361     0.42564718
     0.07446809     0.60758027     0.42564718
     0.07446809     0.64924694     0.42564718
     0.07446809     0.69091361     0.42564718
     0.07446809     0.73258027     0.42564718
     0.07446809     0.77424694     0.42564718
     0.07446809     0.81591361     0.42564718
     0.07446809     0.85758027     0.42564718
     0.07446809     0.89924694     0.42564718
     0.07446809     0.94091361     0.42564718
     0.07446809     0.98258027     0.42564718
     0.09574468     0.02424694     0.42564718
     0.09574468     0.06591361     0.42564718
     0.09574468     0.10758027     0.42564718
     0.09574468     0.14924694     0.42564718
     0.09574468     0.19091361     0.42564718
     0.09574468     0.23258027     0.42564718
     0.09574468     0.27424694     0.42564718
     0.09574468     0.31591361     0.42564718
     0.09574468     0.35758027     0.42564718
     0.09574468     0.39924694     0.42564718
     0.09574468     0.44091361     0.42564718
     0.09574468     0.48258027     0.42564718
     0.09574468     0.52424694     0.42564718
     0.09574468     0.56591361     0.42564718
     0.09574468     0.60758027     0.42564718
     0.09574468     0.64924694     0.42564718
     0.09574468     0.69091361     0.42564718
     0.09574468     0.73258027     0.42564718
     0.09574468     0.77424694     0.42564718
     0.09574468     0.81591361     0.42564718
     0.09574468     0.85758027     0.42564718
     0.09574468     0.89924694     0.42564718
     0.09574468     0.94091361     0.42564718
     0.09574468     0.98258027     0.42564718
     0.11702128     0.02424694     0.42564718
     0.11702128     0.06591361     0.42564718
     0.11702128     0.10758027     0.42564718
     0.11702128     0.14924694     0.42564718
     0.11702128     0.19091361     0.42564718
     0.11702128     0.23258027     0.42564718
     0.11702128     0.27424694     0.42564718
     0.11702128     0.31591361     0.42564718
     0.11702128     0.35758027     0.42564718
     0.11702128     0.39924694     0.42564718
     0.11702128     0.44091361     0.42564718
     0.11702128     0.48258027     0.42564718
     0.11702128     0.52424694     0.42564718
     0.11702128     0.56591361     0.42564718
     0.11702128     0.60758027     0.42564718
     0.11702128     0.64924694     0.42564718
     0.11702128     0.69091361     0.42564718
     0.11702128     0.73258027     0.42564718
     0.11702128     0.77424694     0.42564718
     0.11702128     0.81591361     0.42564718
     0.11702128     0.85758027     0.42564718
     0.11702128     0.89924694     0.42564718
     0.11702128     0.94091361     0.42564718
     0.11702128     0.98258027     0.42564718
     0.13829787     0.02424694     0.42564718
     0.13829787     0.06591361     0.42564718
     0.13829787     0.10758027     0.42564718
     0.13829787     0.14924694     0.42564718
     0.13829787     0.19091361     0.42564718
     0.13829787     0.23258027     0.42564718
     0.13829787     0.27424694     0.42564718
     0.13829787     0.31591361     0.42564718
     0.13829787     0.35758027     0.42564718
     0.13829787     0.39924694     0.42564718
     0.13829787     0.44091361     0.42564718
     0.13829787     0.48258027     0.42564718
     0.13829787     0.52424694     0.42564718
     0.13829787     0.56591361     0.42564718
     0.13829787     0.60758027     0.42564718
     0.13829787     0.64924694     0.42564718
     0.13829787     0.69091361     0.42564718
     0.13829787     0.73258027     0.42564718
     0.13829787     0.77424694     0.42564718
     0.13829787     0.81591361     0.42564718
     0.13829787     0.85758027     0.42564718
     0.13829787     0.89924694     0.42564718
     0.13829787     0.94091361     0.42564718
     0.13829787     0.98258027     0.42564718
     0.15957447     0.02424694     0.42564718
     0.15957447     0.06591361     0.42564718
     0.15957447     0.10758027     0.42564718
     0.15957447     0.14924694     0.42564718
     0.15957447     0.19091361     0.42564718
     0.15957447     0.23258027     0.42564718
     0.15957447     0.27424694     0.42564718
     0.15957447     0.31591361     0.42564718
     0.15957447     0.35758027     0.42564718
     0.15957447     0.39924694     0.42564718
     0.15957447     0.44091361     0.42564718
     0.15957447     0.48258027     0.42564718
     0.15957447     0.52424694     0.42564718
     0.15957447     0.56591361     0.42564718
     0.15957447     0.60758027     0.42564718
     0.15957447     0.64924694     0.42564718
     0.15957447     0.69091361     0.42564718
     0.15957447     0.73258027     0.42564718
     0.15957447     0.77424694     0.42564718
     0.15957447     0.81591361     0.42564718
     0.15957447     0.85758027     0.42564718
     0.15957447     0.89924694     0.42564718
     0.15957447     0.94091361     0.42564718
     0.15957447     0.98258027     0.42564718
     0.18085106     0.02424694     0.42564718
     0.18085106     0.06591361     0.42564718
     0.18085106     0.10758027     0.42564718
     0.18085106     0.14924694     0.42564718
     0.18085106     0.19091361     0.42564718
     0.18085106     0.23258027     0.42564718
     0.18085106     0.27424694     0.42564718
     0.18085106     0.31591361     0.42564718
     0.18085106     0.35758027     0.42564718
     0.18085106     0.39924694     0.42564718
     0.18085106     0.44091361     0.42564718
     0.18085106     0.48258027     0.42564718
     0.18085106     0.52424694     0.42564718
     0.18085106     0.56591361     0.42564718
     0.18085106     0.60758027     0.42564718
     0.18085106     0.64924694     0.42564718
     0.18085106     0.69091361     0.42564718
     0.18085106     0.73258027     0.42564718
     0.18085106     0.77424694     0.42564718
     0.18085106     0.81591361     0.42564718
     0.18085106     0.85758027     0.42564718
     0.18085106     0.89924694     0.42564718
     0.18085106     0.94091361     0.42564718
     0.18085106     0.98258027     0.42564718
     0.20212766     0.02424694     0.42564718
     0.20212766     0.06591361     0.42564718
     0.20212766     0.10758027     0.42564718
     0.20212766     0.14924694     0.42564718
     0.20212766     0.19091361     0.42564718
     0.20212766     0.23258027     0.42564718
     0.20212766     0.27424694     0.42564718
     0.20212766     0.31591361     0.42564718
     0.20212766     0.35758027     0.42564718
     0.20212766     0.39924694     0.42564718
     0.20212766     0.44091361     0.42564718
     0.20212766     0.48258027     0.42564718
     0.20212766     0.52424694     0.42564718
     0.20212766     0.56591361     0.42564718
     0.20212766     0.60758027     0.42564718
     0.20212766     0.64924694     0.42564718
     0.20212766     0.69091361     0.42564718
     0.20212766     0.73258027     0.42564718
     0.20212766     0.77424694     0.42564718
     0.20212766     0.81591361     0.42564718
     0.20212766     0.85758027     0.42564718
     0.20212766     0.89924694     0.42564718
     0.20212766     0.94091361     0.42564718
     0.20212766     0.98258027     0.42564718
     0.22340426     0.02424694     0.42564718
     0.22340426     0.06591361     0.42564718
     0.22340426     0.10758027     0.42564718
     0.22340426     0.14924694     0.42564718
     0.22340426     0.19091361     0.42564718
     0.22340426     0.23258027     0.42564718
     0.22340426     0.27424694     0.42564718
     0.22340426     0.31591361     0.42564718
     0.22340426     0.35758027     0.42564718
     0.22340426     0.39924694     0.42564718
     0.22340426     0.44091361     0.42564718
     0.22340426     0.48258027     0.42564718
     0.22340426     0.52424694     0.42564718
     0.22340426     0.56591361     0.42564718
     0.22340426     0.60758027     0.42564718
     0.22340426     0.64924694     0.42564718
     0.22340426     0.69091361     0.42564718
     0.22340426     0.73258027     0.42564718
     0.22340426     0.77424694     0.42564718
     0.22340426     0.81591361     0.42564718
     0.22340426     0.85758027     0.42564718
     0.22340426     0.89924694     0.42564718
     0.22340426     0.94091361     0.42564718
     0.22340426     0.98258027     0.42564718
     0.24468085     0.02424694     0.42564718
     0.24468085     0.06591361     0.42564718
     0.24468085     0.10758027     0.42564718
     0.24468085     0.14924694     0.42564718
     0.24468085     0.19091361     0.42564718
     0.24468085     0.23258027     0.42564718
     0.24468085     0.27424694     0.42564718
     0.24468085     0.31591361     0.42564718
     0.24468085     0.35758027     0.42564718
     0.24468085     0.39924694     0.42564718
     0.24468085     0.44091361     0.42564718
     0.24468085     0.48258027     0.42564718
     0.24468085     0.52424694     0.42564718
     0.24468085     0.56591361     0.42564718
     0.24468085     0.60758027     0.42564718
     0.24468085     0.64924694     0.42564718
     0.24468085     0.69091361     0.42564718
     0.24468085     0.73258027     0.42564718
     0.24468085     0.77424694     0.42564718
     0.24468085     0.81591361     0.42564718
     0.24468085     0.85758027     0.42564718
     0.24468085     0.89924694     0.42564718
     0.24468085     0.94091361     0.42564718
     0.24468085     0.98258027     0.42564718
     0.26595745     0.02424694     0.42564718
     0.26595745     0.06591361     0.42564718
     0.26595745     0.10758027     0.42564718
     0.26595745     0.14924694     0.42564718
     0.26595745     0.19091361     0.42564718
     0.26595745     0.23258027     0.42564718
     0.26595745     0.27424694     0.42564718
     0.26595745     0.31591361     0.42564718
     0.26595745     0.35758027     0.42564718
     0.26595745     0.39924694     0.42564718
     0.26595745     0.44091361     0.42564718
     0.26595745     0.48258027     0.42564718
     0.26595745     0.52424694     0.42564718
     0.26595745     0.56591361     0.42564718
     0.26595745     0.60758027     0.42564718
     0.26595745     0.64924694     0.42564718
     0.26595745     0.69091361     0.42564718
     0.26595745     0.73258027     0.42564718
     0.26595745     0.77424694     0.42564718
     0.26595745     0.81591361     0.42564718
     0.26595745     0.85758027     0.42564718
     0.26595745     0.89924694     0.42564718
     0.26595745     0.94091361     0.42564718
     0.26595745     0.98258027     0.42564718
     0.28723404     0.02424694     0.42564718
     0.28723404     0.06591361     0.42564718
     0.28723404     0.10758027     0.42564718
     0.28723404     0.14924694     0.42564718
     0.28723404     0.19091361     0.42564718
     0.28723404     0.23258027     0.42564718
     0.28723404     0.27424694     0.42564718
     0.28723404     0.31591361     0.42564718
     0.28723404     0.35758027     0.42564718
     0.28723404     0.39924694     0.42564718
     0.28723404     0.44091361     0.42564718
     0.28723404     0.48258027     0.42564718
     0.28723404     0.52424694     0.42564718
     0.28723404     0.56591361     0.42564718
     0.28723404     0.60758027     0.42564718
     0.28723404     0.64924694     0.42564718
     0.28723404     0.69091361     0.42564718
     0.28723404     0.73258027     0.42564718
     0.28723404     0.77424694     0.42564718
     0.28723404     0.81591361     0.42564718
     0.28723404     0.85758027     0.42564718
     0.28723404     0.89924694     0.42564718
     0.28723404     0.94091361     0.42564718
     0.28723404     0.98258027     0.42564718
     0.30851064     0.02424694     0.42564718
     0.30851064     0.06591361     0.42564718
     0.30851064     0.10758027     0.42564718
     0.30851064     0.14924694     0.42564718
     0.30851064     0.19091361     0.42564718
     0.30851064     0.23258027     0.42564718
     0.30851064     0.27424694     0.42564718
     0.30851064     0.31591361     0.42564718
     0.30851064     0.35758027     0.42564718
     0.30851064     0.39924694     0.42564718
     0.30851064     0.44091361     0.42564718
     0.30851064     0.48258027     0.42564718
     0.30851064     0.52424694     0.42564718
     0.30851064     0.56591361     0.42564718
     0.30851064     0.60758027     0.42564718
     0.30851064     0.64924694     0.42564718
     0.30851064     0.69091361     0.42564718
     0.30851064     0.73258027     0.42564718
     0.30851064     0.77424694     0.42564718
     0.30851064     0.81591361     0.42564718
     0.30851064     0.85758027     0.42564718
     0.30851064     0.89924694     0.42564718
     0.30851064     0.94091361     0.42564718
     0.30851064     0.98258027     0.42564718
     0.32978723     0.02424694     0.42564718
     0.32978723     0.06591361     0.42564718
     0.32978723     0.10758027     0.42564718
     0.32978723     0.14924694     0.42564718
     0.32978723     0.19091361     0.42564718
     0.32978723     0.23258027     0.42564718
     0.32978723     0.27424694     0.42564718
     0.32978723     0.31591361     0.42564718
     0.32978723     0.35758027     0.42564718
     0.32978723     0.39924694     0.42564718
     0.32978723     0.44091361     0.42564718
     0.32978723     0.48258027     0.42564718
     0.32978723     0.52424694     0.42564718
     0.32978723     0.56591361     0.42564718
     0.32978723     0.60758027     0.42564718
     0.32978723     0.64924694     0.42564718
     0.32978723     0.69091361     0.42564718
     0.32978723     0.73258027     0.42564718
     0.32978723     0.77424694     0.42564718
     0.32978723     0.81591361     0.42564718
     0.32978723     0.85758027     0.42564718
     0.32978723     0.89924694     0.42564718
     0.32978723     0.94091361     0.42564718
     0.32978723     0.98258027     0.42564718
     0.35106383     0.02424694     0.42564718
     0.35106383     0.06591361     0.42564718
     0.35106383     0.10758027     0.42564718
     0.35106383     0.14924694     0.42564718
     0.35106383     0.19091361     0.42564718
     0.35106383     0.23258027     0.42564718
     0.35106383     0.27424694     0.42564718
     0.35106383     0.31591361     0.42564718
     0.35106383     0.35758027     0.42564718
     0.35106383     0.39924694     0.42564718
     0.35106383     0.44091361     0.42564718
     0.35106383     0.48258027     0.42564718
     0.35106383     0.52424694     0.42564718
     0.35106383     0.56591361     0.42564718
     0.35106383     0.60758027     0.42564718
     0.35106383     0.64924694     0.42564718
     0.35106383     0.69091361     0.42564718
     0.35106383     0.73258027     0.42564718
     0.35106383     0.77424694     0.42564718
     0.35106383     0.81591361     0.42564718
     0.35106383     0.85758027     0.42564718
     0.35106383     0.89924694     0.42564718
     0.35106383     0.94091361     0.42564718
     0.35106383     0.98258027     0.42564718
     0.37234043     0.02424694     0.42564718
     0.37234043     0.06591361     0.42564718
     0.37234043     0.10758027     0.42564718
     0.37234043     0.14924694     0.42564718
     0.37234043     0.19091361     0.42564718
     0.37234043     0.23258027     0.42564718
     0.37234043     0.27424694     0.42564718
     0.37234043     0.31591361     0.42564718
     0.37234043     0.35758027     0.42564718
     0.37234043     0.39924694     0.42564718
     0.37234043     0.44091361     0.42564718
     0.37234043     0.48258027     0.42564718
     0.37234043     0.52424694     0.42564718
     0.37234043     0.56591361     0.42564718
     0.37234043     0.60758027     0.42564718
     0.37234043     0.64924694     0.42564718
     0.37234043     0.69091361     0.42564718
     0.37234043     0.73258027     0.42564718
     0.37234043     0.77424694     0.42564718
     0.37234043     0.81591361     0.42564718
     0.37234043     0.85758027     0.42564718
     0.37234043     0.89924694     0.42564718
     0.37234043     0.94091361     0.42564718
     0.37234043     0.98258027     0.42564718
     0.39361702     0.02424694     0.42564718
     0.39361702     0.06591361     0.42564718
     0.39361702     0.10758027     0.42564718
     0.39361702     0.14924694     0.42564718
     0.39361702     0.19091361     0.42564718
     0.39361702     0.23258027     0.42564718
     0.39361702     0.27424694     0.42564718
     0.39361702     0.31591361     0.42564718
     0.39361702     0.35758027     0.42564718
     0.39361702     0.39924694     0.42564718
     0.39361702     0.44091361     0.42564718
     0.39361702     0.48258027     0.42564718
     0.39361702     0.52424694     0.42564718
     0.39361702     0.56591361     0.42564718
     0.39361702     0.60758027     0.42564718
     0.39361702     0.64924694     0.42564718
     0.39361702     0.69091361     0.42564718
     0.39361702     0.73258027     0.42564718
     0.39361702     0.77424694     0.42564718
     0.39361702     0.81591361     0.42564718
     0.39361702     0.85758027     0.42564718
     0.39361702     0.89924694     0.42564718
     0.39361702     0.94091361     0.42564718
     0.39361702     0.98258027     0.42564718
     0.41489362     0.02424694     0.42564718
     0.41489362     0.06591361     0.42564718
     0.41489362     0.10758027     0.42564718
     0.41489362     0.14924694     0.42564718
     0.41489362     0.19091361     0.42564718
     0.41489362     0.23258027     0.42564718
     0.41489362     0.27424694     0.42564718
     0.41489362     0.31591361     0.42564718
     0.41489362     0.35758027     0.42564718
     0.41489362     0.39924694     0.42564718
     0.41489362     0.44091361     0.42564718
     0.41489362     0.48258027     0.42564718
     0.41489362     0.52424694     0.42564718
     0.41489362     0.56591361     0.42564718
     0.41489362     0.60758027     0.42564718
     0.41489362     0.64924694     0.42564718
     0.41489362     0.69091361     0.42564718
     0.41489362     0.73258027     0.42564718
     0.41489362     0.77424694     0.42564718
     0.41489362     0.81591361     0.42564718
     0.41489362     0.85758027     0.42564718
     0.41489362     0.89924694     0.42564718
     0.41489362     0.94091361     0.42564718
     0.41489362     0.98258027     0.42564718
     0.43617021     0.02424694     0.42564718
     0.43617021     0.06591361     0.42564718
     0.43617021     0.10758027     0.42564718
     0.43617021     0.14924694     0.42564718
     0.43617021     0.19091361     0.42564718
     0.43617021     0.23258027     0.42564718
     0.43617021     0.27424694     0.42564718
     0.43617021     0.31591361     0.42564718
     0.43617021     0.35758027     0.42564718
     0.43617021     0.39924694     0.42564718
     0.43617021     0.44091361     0.42564718
     0.43617021     0.48258027     0.42564718
     0.43617021     0.52424694     0.42564718
     0.43617021     0.56591361     0.42564718
     0.43617021     0.60758027     0.42564718
     0.43617021     0.64924694     0.42564718
     0.43617021     0.69091361     0.42564718
     0.43617021     0.73258027     0.42564718
     0.43617021     0.77424694     0.42564718
     0.43617021     0.81591361     0.42564718
     0.43617021     0.85758027     0.42564718
     0.43617021     0.89924694     0.42564718
     0.43617021     0.94091361     0.42564718
     0.43617021     0.98258027     0.42564718
     0.45744681     0.02424694     0.42564718
     0.45744681     0.06591361     0.42564718
     0.45744681     0.10758027     0.42564718
     0.45744681     0.14924694     0.42564718
     0.45744681     0.19091361     0.42564718
     0.45744681     0.23258027     0.42564718
     0.45744681     0.27424694     0.42564718
     0.45744681     0.31591361     0.42564718
     0.45744681     0.35758027     0.42564718
     0.45744681     0.39924694     0.42564718
     0.45744681     0.44091361     0.42564718
     0.45744681     0.48258027     0.42564718
     0.45744681     0.52424694     0.42564718
     0.45744681     0.56591361     0.42564718
     0.45744681     0.60758027     0.42564718
     0.45744681     0.64924694     0.42564718
     0.45744681     0.69091361     0.42564718
     0.45744681     0.73258027     0.42564718
     0.45744681     0.77424694     0.42564718
     0.45744681     0.81591361     0.42564718
     0.45744681     0.85758027     0.42564718
     0.45744681     0.89924694     0.42564718
     0.45744681     0.94091361     0.42564718
     0.45744681     0.98258027     0.42564718
     0.47872340     0.02424694     0.42564718
     0.47872340     0.06591361     0.42564718
     0.47872340     0.10758027     0.42564718
     0.47872340     0.14924694     0.42564718
     0.47872340     0.19091361     0.42564718
     0.47872340     0.23258027     0.42564718
     0.47872340     0.27424694     0.42564718
     0.47872340     0.31591361     0.42564718
     0.47872340     0.35758027     0.42564718
     0.47872340     0.39924694     0.42564718
     0.47872340     0.44091361     0.42564718
     0.47872340     0.48258027     0.42564718
     0.47872340     0.52424694     0.42564718
     0.47872340     0.56591361     0.42564718
     0.47872340     0.60758027     0.42564718
     0.47872340     0.64924694     0.42564718
     0.47872340     0.69091361     0.42564718
     0.47872340     0.73258027     0.42564718
     0.47872340     0.77424694     0.42564718
     0.47872340     0.81591361     0.42564718
     0.47872340     0.85758027     0.42564718
     0.47872340     0.89924694     0.42564718
     0.47872340     0.94091361     0.42564718
     0.47872340     0.98258027     0.42564718
     0.50000000     0.02424694     0.42564718
     0.50000000     0.06591361     0.42564718
     0.50000000     0.10758027     0.42564718
     0.50000000     0.14924694     0.42564718
     0.50000000     0.19091361     0.42564718
     0.50000000     0.23258027     0.42564718
     0.50000000     0.27424694     0.42564718
     0.50000000     0.31591361     0.42564718
     0.50000000     0.35758027     0.42564718
     0.50000000     0.39924694     0.42564718
     0.50000000     0.44091361     0.42564718
     0.50000000     0.48258027     0.42564718
     0.50000000     0.52424694     0.42564718
     0.50000000     0.56591361     0.42564718
     0.50000000     0.60758027     0.42564718
     0.50000000     0.64924694     0.42564718
     0.50000000     0.69091361     0.42564718
     0.50000000     0.73258027     0.42564718
     0.50000000     0.77424694     0.42564718
     0.50000000     0.81591361     0.42564718
     0.50000000     0.85758027     0.42564718
     0.50000000     0.89924694     0.42564718
     0.50000000     0.94091361     0.42564718
     0.50000000     0.98258027     0.42564718
     0.52127660     0.02424694     0.42564718
     0.52127660     0.06591361     0.42564718
     0.52127660     0.10758027     0.42564718
     0.52127660     0.14924694     0.42564718
     0.52127660     0.19091361     0.42564718
     0.52127660     0.23258027     0.42564718
     0.52127660     0.27424694     0.42564718
     0.52127660     0.31591361     0.42564718
     0.52127660     0.35758027     0.42564718
     0.52127660     0.39924694     0.42564718
     0.52127660     0.44091361     0.42564718
     0.52127660     0.48258027     0.42564718
     0.52127660     0.52424694     0.42564718
     0.52127660     0.56591361     0.42564718
     0.52127660     0.60758027     0.42564718
     0.52127660     0.64924694     0.42564718
     0.52127660     0.69091361     0.42564718
     0.52127660     0.73258027     0.42564718
     0.52127660     0.77424694     0.42564718
     0.52127660     0.81591361     0.42564718
     0.52127660     0.85758027     0.42564718
     0.52127660     0.89924694     0.42564718
     0.52127660     0.94091361     0.42564718
     0.52127660     0.98258027     0.42564718
     0.54255319     0.02424694     0.42564718
     0.54255319     0.06591361     0.42564718
     0.54255319     0.10758027     0.42564718
     0.54255319     0.14924694     0.42564718
     0.54255319     0.19091361     0.42564718
     0.54255319     0.23258027     0.42564718
     0.54255319     0.27424694     0.42564718
     0.54255319     0.31591361     0.42564718
     0.54255319     0.35758027     0.42564718
     0.54255319     0.39924694     0.42564718
     0.54255319     0.44091361     0.42564718
     0.54255319     0.48258027     0.42564718
     0.54255319     0.52424694     0.42564718
     0.54255319     0.56591361     0.42564718
     0.54255319     0.60758027     0.42564718
     0.54255319     0.64924694     0.42564718
     0.54255319     0.69091361     0.42564718
     0.54255319     0.73258027     0.42564718
     0.54255319     0.77424694     0.42564718
     0.54255319     0.81591361     0.42564718
     0.54255319     0.85758027     0.42564718
     0.54255319     0.89924694     0.42564718
     0.54255319     0.94091361     0.42564718
     0.54255319     0.98258027     0.42564718
     0.56382979     0.02424694     0.42564718
     0.56382979     0.06591361     0.42564718
     0.56382979     0.10758027     0.42564718
     0.56382979     0.14924694     0.42564718
     0.56382979     0.19091361     0.42564718
     0.56382979     0.23258027     0.42564718
     0.56382979     0.27424694     0.42564718
     0.56382979     0.31591361     0.42564718
     0.56382979     0.35758027     0.42564718
     0.56382979     0.39924694     0.42564718
     0.56382979     0.44091361     0.42564718
     0.56382979     0.48258027     0.42564718
     0.56382979     0.52424694     0.42564718
     0.56382979     0.56591361     0.42564718
     0.56382979     0.60758027     0.42564718
     0.56382979     0.64924694     0.42564718
     0.56382979     0.69091361     0.42564718
     0.56382979     0.73258027     0.42564718
     0.56382979     0.77424694     0.42564718
     0.56382979     0.81591361     0.42564718
     0.56382979     0.85758027     0.42564718
     0.56382979     0.89924694     0.42564718
     0.56382979     0.94091361     0.42564718