Generated by Twist2D
    1.0
     168.14698138       0.00000000       0.00000000
       0.00000000     119.62313088       0.00000000
       0.00000000       0.00000000      20.00000000
    P
    11020
Direct
     0.00980392     0.02155283     0.42564718
     0.00980392     0.05858987     0.42564718
     0.00980392     0.09562691     0.42564718
     0.00980392     0.13266395     0.42564718
     0.00980392     0.16970098     0.42564718
     0.00980392     0.20673802     0.42564718
     0.00980392     0.24377506     0.42564718
     0.00980392     0.28081209     0.42564718
     0.00980392     0.31784913     0.42564718
     0.00980392     0.35488617     0.42564718
     0.00980392     0.39192320     0.42564718
     0.00980392     0.42896024     0.42564718
     0.00980392     0.46599728     0.42564718
     0.00980392     0.50303432     0.42564718
     0.00980392     0.54007135     0.42564718
     0.00980392     0.57710839     0.42564718
     0.00980392     0.61414543     0.42564718
     0.00980392     0.65118246     0.42564718
     0.00980392     0.68821950     0.42564718
     0.00980392     0.72525654     0.42564718
     0.00980392     0.76229357     0.42564718
     0.00980392     0.79933061     0.42564718
     0.00980392     0.83636765     0.42564718
     0.00980392     0.87340469     0.42564718
     0.00980392     0.91044172     0.42564718
     0.00980392     0.94747876     0.42564718
     0.00980392     0.98451580     0.42564718
     0.02941176     0.02155283     0.42564718
     0.02941176     0.05858987     0.42564718
     0.02941176     0.09562691     0.42564718
     0.02941176     0.13266395     0.42564718
     0.02941176     0.16970098     0.42564718
     0.02941176     0.20673802     0.42564718
     0.02941176     0.24377506     0.42564718
     0.02941176     0.28081209     0.42564718
     0.02941176     0.31784913     0.42564718
     0.02941176     0.35488617     0.42564718
     0.02941176     0.39192320     0.42564718
     0.02941176     0.42896024     0.42564718
     0.02941176     0.46599728     0.42564718
     0.02941176     0.50303432     0.42564718
     0.02941176     0.54007135     0.42564718
     0.02941176     0.57710839     0.42564718
     0.02941176     0.61414543     0.42564718
     0.02941176     0.65118246     0.42564718
     0.02941176     0.68821950     0.42564718
     0.02941176     0.72525654     0.42564718
     0.02941176     0.76229357     0.42564718
     0.02941176     0.79933061     0.42564718
     0.02941176     0.83636765     0.42564718
     0.02941176     0.87340469     0.42564718
     0.02941176     0.91044172     0.42564718
     0.02941176     0.94747876     0.42564718
     0.02941176     0.98451580     0.42564718
     0.04901961     0.02155283     0.42564718
     0.04901961     0.05858987     0.42564718
     0.04901961     0.09562691     0.42564718
     0.04901961     0.13266395     0.42564718
     0.04901961     0.16970098     0.42564718
     0.04901961     0.20673802     0.42564718
     0.04901961     0.24377506     0.42564718
     0.04901961     0.28081209     0.42564718
     0.04901961     0.31784913     0.42564718
     0.04901961     0.35488617     0.42564718
     0.04901961     0.39192320     0.42564718
     0.04901961     0.42896024     0.42564718
     0.04901961     0.46599728     0.42564718
     0.04901961     0.50303432     0.42564718
     0.04901961     0.54007135     0.42564718
     0.04901961     0.57710839     0.42564718
     0.04901961     0.61414543     0.42564718
     0.04901961     0.65118246     0.42564718
     0.04901961     0.68821950     0.42564718
     0.04901961     0.72525654     0.42564718
     0.04901961     0.76229357     0.42564718
     0.04901961     0.79933061     0.42564718
     0.04901961     0.83636765     0.42564718
     0.04901961     0.87340469     0.42564718
     0.04901961     0.91044172     0.42564718
     0.04901961     0.94747876     0.42564718
     0.04901961     0.98451580     0.42564718
     0.06862745     0.02155283     0.42564718
     0.06862745     0.05858987     0.42564718
     0.06862745     0.09562691     0.42564718
     0.06862745     0.13266395     0.42564718
     0.06862745     0.16970098     0.42564718
     0.06862745     0.20673802     0.42564718
     0.06862745     0.24377506     0.42564718
     0.06862745     0.28081209     0.42564718
     0.06862745     0.31784913     0.42564718
     0.06862745     0.35488617     0.42564718
     0.06862745     0.39192320     0.42564718
     0.06862745     0.42896024     0.42564718
     0.06862745     0.46599728     0.42564718
     0.06862745     0.50303432     0.42564718
     0.06862745     0.54007135     0.42564718
     0.06862745     0.57710839     0.42564718
     0.06862745     0.61414543     0.42564718
     0.06862745     0.65118246     0.42564718
     0.06862745     0.68821950     0.42564718
     0.06862745     0.72525654     0.42564718
     0.06862745     0.76229357     0.42564718
     0.06862745     0.79933061     0.42564718
     0.06862745     0.83636765     0.42564718
     0.06862745     0.87340469     0.42564718
     0.06862745     0.91044172     0.42564718
     0.06862745     0.94747876     0.42564718
     0.06862745     0.98451580     0.42564718
     0.08823529     0.02155283     0.42564718
     0.08823529     0.05858987     0.42564718
     0.08823529     0.09562691     0.42564718
     0.08823529     0.13266395     0.42564718
     0.08823529     0.16970098     0.42564718
     0.08823529     0.20673802     0.42564718
     0.08823529     0.24377506     0.42564718
     0.08823529     0.28081209     0.42564718
     0.08823529     0.31784913     0.42564718
     0.08823529     0.35488617     0.42564718
     0.08823529     0.39192320     0.42564718
     0.08823529     0.42896024     0.42564718
     0.08823529     0.46599728     0.42564718
     0.08823529     0.50303432     0.42564718
     0.08823529     0.54007135     0.42564718
     0.08823529     0.57710839     0.42564718
     0.08823529     0.61414543     0.42564718
     0.08823529     0.65118246     0.42564718
     0.08823529     0.68821950     0.42564718
     0.08823529     0.72525654     0.42564718
     0.08823529     0.76229357     0.42564718
     0.08823529     0.79933061     0.42564718
     0.08823529     0.83636765     0.42564718
     0.08823529     0.87340469     0.42564718
     0.08823529     0.91044172     0.42564718
     0.08823529     0.94747876     0.42564718
     0.08823529     0.98451580     0.42564718
     0.10784314     0.02155283     0.42564718
     0.10784314     0.05858987     0.42564718
     0.10784314     0.09562691     0.42564718
     0.10784314     0.13266395     0.42564718
     0.10784314     0.16970098     0.42564718
     0.10784314     0.20673802     0.42564718
     0.10784314     0.24377506     0.42564718
     0.10784314     0.28081209     0.42564718
     0.10784314     0.31784913     0.42564718
     0.10784314     0.35488617     0.42564718
     0.10784314     0.39192320     0.42564718
     0.10784314     0.42896024     0.42564718
     0.10784314     0.46599728     0.42564718
     0.10784314     0.50303432     0.42564718
     0.10784314     0.54007135     0.42564718
     0.10784314     0.57710839     0.42564718
     0.10784314     0.61414543     0.42564718
     0.10784314     0.65118246     0.42564718
     0.10784314     0.68821950     0.42564718
     0.10784314     0.72525654     0.42564718
     0.10784314     0.76229357     0.42564718
     0.10784314     0.79933061     0.42564718
     0.10784314     0.83636765     0.42564718
     0.10784314     0.87340469     0.42564718
     0.10784314     0.91044172     0.42564718
     0.10784314     0.94747876     0.42564718
     0.10784314     0.98451580     0.42564718
     0.12745098     0.02155283     0.42564718
     0.12745098     0.05858987     0.42564718
     0.12745098     0.09562691     0.42564718
     0.12745098     0.13266395     0.42564718
     0.12745098     0.16970098     0.42564718
     0.12745098     0.20673802     0.42564718
     0.12745098     0.24377506     0.42564718
     0.12745098     0.28081209     0.42564718
     0.12745098     0.31784913     0.42564718
     0.12745098     0.35488617     0.42564718
     0.12745098     0.39192320     0.42564718
     0.12745098     0.42896024     0.42564718
     0.12745098     0.46599728     0.42564718
     0.12745098     0.50303432     0.42564718
     0.12745098     0.54007135     0.42564718
     0.12745098     0.57710839     0.42564718
     0.12745098     0.61414543     0.42564718
     0.12745098     0.65118246     0.42564718
     0.12745098     0.68821950     0.42564718
     0.12745098     0.72525654     0.42564718
     0.12745098     0.76229357     0.42564718
     0.12745098     0.79933061     0.42564718
     0.12745098     0.83636765     0.42564718
     0.12745098     0.87340469     0.42564718
     0.12745098     0.91044172     0.42564718
     0.12745098     0.94747876     0.42564718
     0.12745098     0.98451580     0.42564718
     0.14705882     0.02155283     0.42564718
     0.14705882     0.05858987     0.42564718
     0.14705882     0.09562691     0.42564718
     0.14705882     0.13266395     0.42564718
     0.14705882     0.16970098     0.42564718
     0.14705882     0.20673802     0.42564718
     0.14705882     0.24377506     0.42564718
     0.14705882     0.28081209     0.42564718
     0.14705882     0.31784913     0.42564718
     0.14705882     0.35488617     0.42564718
     0.14705882     0.39192320     0.42564718
     0.14705882     0.42896024     0.42564718
     0.14705882     0.46599728     0.42564718
     0.14705882     0.50303432     0.42564718
     0.14705882     0.54007135     0.42564718
     0.14705882     0.57710839     0.42564718
     0.14705882     0.61414543     0.42564718
     0.14705882     0.65118246     0.42564718
     0.14705882     0.68821950     0.42564718
     0.14705882     0.72525654     0.42564718
     0.14705882     0.76229357     0.42564718
     0.14705882     0.79933061     0.42564718
     0.14705882     0.83636765     0.42564718
     0.14705882     0.87340469     0.42564718
     0.14705882     0.91044172     0.42564718
     0.14705882     0.94747876     0.42564718
     0.14705882     0.98451580     0.42564718
     0.16666667     0.02155283     0.42564718
     0.16666667     0.05858987     0.42564718
     0.16666667     0.09562691     0.42564718
     0.16666667     0.13266395     0.42564718
     0.16666667     0.16970098     0.42564718
     0.16666667     0.20673802     0.42564718
     0.16666667     0.24377506     0.42564718
     0.16666667     0.28081209     0.42564718
     0.16666667     0.31784913     0.42564718
     0.16666667     0.35488617     0.42564718
     0.16666667     0.39192320     0.42564718
     0.16666667     0.42896024     0.42564718
     0.16666667     0.46599728     0.42564718
     0.16666667     0.50303432     0.42564718
     0.16666667     0.54007135     0.42564718
     0.16666667     0.57710839     0.42564718
     0.16666667     0.61414543     0.42564718
     0.16666667     0.65118246     0.42564718
     0.16666667     0.68821950     0.42564718
     0.16666667     0.72525654     0.42564718
     0.16666667     0.76229357     0.42564718
     0.16666667     0.79933061     0.42564718
     0.16666667     0.83636765     0.42564718
     0.16666667     0.87340469     0.42564718
     0.16666667     0.91044172     0.42564718
     0.16666667     0.94747876     0.42564718
     0.16666667     0.98451580     0.42564718
     0.18627451     0.02155283     0.42564718
     0.18627451     0.05858987     0.42564718
     0.18627451     0.09562691     0.42564718
     0.18627451     0.13266395     0.42564718
     0.18627451     0.16970098     0.42564718
     0.18627451     0.20673802     0.42564718
     0.18627451     0.24377506     0.42564718
     0.18627451     0.28081209     0.42564718
     0.18627451     0.31784913     0.42564718
     0.18627451     0.35488617     0.42564718
     0.18627451     0.39192320     0.42564718
     0.18627451     0.42896024     0.42564718
     0.18627451     0.46599728     0.42564718
     0.18627451     0.50303432     0.42564718
     0.18627451     0.54007135     0.42564718
     0.18627451     0.57710839     0.42564718
     0.18627451     0.61414543     0.42564718
     0.18627451     0.65118246     0.42564718
     0.18627451     0.68821950     0.42564718
     0.18627451     0.72525654     0.42564718
     0.18627451     0.76229357     0.42564718
     0.18627451     0.79933061     0.42564718
     0.18627451     0.83636765     0.42564718
     0.18627451     0.87340469     0.42564718
     0.18627451     0.91044172     0.42564718
     0.18627451     0.94747876     0.42564718
     0.18627451     0.98451580     0.42564718
     0.20588235     0.02155283     0.42564718
     0.20588235     0.05858987     0.42564718
     0.20588235     0.09562691     0.42564718
     0.20588235     0.13266395     0.42564718
     0.20588235     0.16970098     0.42564718
     0.20588235     0.20673802     0.42564718
     0.20588235     0.24377506     0.42564718
     0.20588235     0.28081209     0.42564718
     0.20588235     0.31784913     0.42564718
     0.20588235     0.35488617     0.42564718
     0.20588235     0.39192320     0.42564718
     0.20588235     0.42896024     0.42564718
     0.20588235     0.46599728     0.42564718
     0.20588235     0.50303432     0.42564718
     0.20588235     0.54007135     0.42564718
     0.20588235     0.57710839     0.42564718
     0.20588235     0.61414543     0.42564718
     0.20588235     0.65118246     0.42564718
     0.20588235     0.68821950     0.42564718
     0.20588235     0.72525654     0.42564718
     0.20588235     0.76229357     0.42564718
     0.20588235     0.79933061     0.42564718
     0.20588235     0.83636765     0.42564718
     0.20588235     0.87340469     0.42564718
     0.20588235     0.91044172     0.42564718
     0.20588235     0.94747876     0.42564718
     0.20588235     0.98451580     0.42564718
     0.22549020     0.02155283     0.42564718
     0.22549020     0.05858987     0.42564718
     0.22549020     0.09562691     0.42564718
     0.22549020     0.13266395     0.42564718
     0.22549020     0.16970098     0.42564718
     0.22549020     0.20673802     0.42564718
     0.22549020     0.24377506     0.42564718
     0.22549020     0.28081209     0.42564718
     0.22549020     0.31784913     0.42564718
     0.22549020     0.35488617     0.42564718
     0.22549020     0.39192320     0.42564718
     0.22549020     0.42896024     0.42564718
     0.22549020     0.46599728     0.42564718
     0.22549020     0.50303432     0.42564718
     0.22549020     0.54007135     0.42564718
     0.22549020     0.57710839     0.42564718
     0.22549020     0.61414543     0.42564718
     0.22549020     0.65118246     0.42564718
     0.22549020     0.68821950     0.42564718
     0.22549020     0.72525654     0.42564718
     0.22549020     0.76229357     0.42564718
     0.22549020     0.79933061     0.42564718
     0.22549020     0.83636765     0.42564718
     0.22549020     0.87340469     0.42564718
     0.22549020     0.91044172     0.42564718
     0.22549020     0.94747876     0.42564718
     0.22549020     0.98451580     0.42564718
     0.24509804     0.02155283     0.42564718
     0.24509804     0.05858987     0.42564718
     0.24509804     0.09562691     0.42564718
     0.24509804     0.13266395     0.42564718
     0.24509804     0.16970098     0.42564718
     0.24509804     0.20673802     0.42564718
     0.24509804     0.24377506     0.42564718
     0.24509804     0.28081209     0.42564718
     0.24509804     0.31784913     0.42564718
     0.24509804     0.35488617     0.42564718
     0.24509804     0.39192320     0.42564718
     0.24509804     0.42896024     0.42564718
     0.24509804     0.46599728     0.42564718
     0.24509804     0.50303432     0.42564718
     0.24509804     0.54007135     0.42564718
     0.24509804     0.57710839     0.42564718
     0.24509804     0.61414543     0.42564718
     0.24509804     0.65118246     0.42564718
     0.24509804     0.68821950     0.42564718
     0.24509804     0.72525654     0.42564718
     0.24509804     0.76229357     0.42564718
     0.24509804     0.79933061     0.42564718
     0.24509804     0.83636765     0.42564718
     0.24509804     0.87340469     0.42564718
     0.24509804     0.91044172     0.42564718
     0.24509804     0.94747876     0.42564718
     0.24509804     0.98451580     0.42564718
     0.26470588     0.02155283     0.42564718
     0.26470588     0.05858987     0.42564718
     0.26470588     0.09562691     0.42564718
     0.26470588     0.13266395     0.42564718
     0.26470588     0.16970098     0.42564718
     0.26470588     0.20673802     0.42564718
     0.26470588     0.24377506     0.42564718
     0.26470588     0.28081209     0.42564718
     0.26470588     0.31784913     0.42564718
     0.26470588     0.35488617     0.42564718
     0.26470588     0.39192320     0.42564718
     0.26470588     0.42896024     0.42564718
     0.26470588     0.46599728     0.42564718
     0.26470588     0.50303432     0.42564718
     0.26470588     0.54007135     0.42564718
     0.26470588     0.57710839     0.42564718
     0.26470588     0.61414543     0.42564718
     0.26470588     0.65118246     0.42564718
     0.26470588     0.68821950     0.42564718
     0.26470588     0.72525654     0.42564718
     0.26470588     0.76229357     0.42564718
     0.26470588     0.79933061     0.42564718
     0.26470588     0.83636765     0.42564718
     0.26470588     0.87340469     0.42564718
     0.26470588     0.91044172     0.42564718
     0.26470588     0.94747876     0.42564718
     0.26470588     0.98451580     0.42564718
     0.28431373     0.02155283     0.42564718
     0.28431373     0.05858987     0.42564718
     0.28431373     0.09562691     0.42564718
     0.28431373     0.13266395     0.42564718
     0.28431373     0.16970098     0.42564718
     0.28431373     0.20673802     0.42564718
     0.28431373     0.24377506     0.42564718
     0.28431373     0.28081209     0.42564718
     0.28431373     0.31784913     0.42564718
     0.28431373     0.35488617     0.42564718
     0.28431373     0.39192320     0.42564718
     0.28431373     0.42896024     0.42564718
     0.28431373     0.46599728     0.42564718
     0.28431373     0.50303432     0.42564718
     0.28431373     0.54007135     0.42564718
     0.28431373     0.57710839     0.42564718
     0.28431373     0.61414543     0.42564718
     0.28431373     0.65118246     0.42564718
     0.28431373     0.68821950     0.42564718
     0.28431373     0.72525654     0.42564718
     0.28431373     0.76229357     0.42564718
     0.28431373     0.79933061     0.42564718
     0.28431373     0.83636765     0.42564718
     0.28431373     0.87340469     0.42564718
     0.28431373     0.91044172     0.42564718
     0.28431373     0.94747876     0.42564718
     0.28431373     0.98451580     0.42564718
     0.30392157     0.02155283     0.42564718
     0.30392157     0.05858987     0.42564718
     0.30392157     0.09562691     0.42564718
     0.30392157     0.13266395     0.42564718
     0.30392157     0.16970098     0.42564718
     0.30392157     0.20673802     0.42564718
     0.30392157     0.24377506     0.42564718
     0.30392157     0.28081209     0.42564718
     0.30392157     0.31784913     0.42564718
     0.30392157     0.35488617     0.42564718
     0.30392157     0.39192320     0.42564718
     0.30392157     0.42896024     0.42564718
     0.30392157     0.46599728     0.42564718
     0.30392157     0.50303432     0.42564718
     0.30392157     0.54007135     0.42564718
     0.30392157     0.57710839     0.42564718
     0.30392157     0.61414543     0.42564718
     0.30392157     0.65118246     0.42564718
     0.30392157     0.68821950     0.42564718
     0.30392157     0.72525654     0.42564718
     0.30392157     0.76229357     0.42564718
     0.30392157     0.79933061     0.42564718
     0.30392157     0.83636765     0.42564718
     0.30392157     0.87340469     0.42564718
     0.30392157     0.91044172     0.42564718
     0.30392157     0.94747876     0.42564718
     0.30392157     0.98451580     0.42564718
     0.32352941     0.02155283     0.42564718
     0.32352941     0.05858987     0.42564718
     0.32352941     0.09562691     0.42564718
     0.32352941     0.13266395     0.42564718
     0.32352941     0.16970098     0.42564718
     0.32352941     0.20673802     0.42564718
     0.32352941     0.24377506     0.42564718
     0.32352941     0.28081209     0.42564718
     0.32352941     0.31784913     0.42564718
     0.32352941     0.35488617     0.42564718
     0.32352941     0.39192320     0.42564718
     0.32352941     0.42896024     0.42564718
     0.32352941     0.46599728     0.42564718
     0.32352941     0.50303432     0.42564718
     0.32352941     0.54007135     0.42564718
     0.32352941     0.57710839     0.42564718
     0.32352941     0.61414543     0.42564718
     0.32352941     0.65118246     0.42564718
     0.32352941     0.68821950     0.42564718
     0.32352941     0.72525654     0.42564718
     0.32352941     0.76229357     0.42564718
     0.32352941     0.79933061     0.42564718
     0.32352941     0.83636765     0.42564718
     0.32352941     0.87340469     0.42564718
     0.32352941     0.91044172     0.42564718
     0.32352941     0.94747876     0.42564718
     0.32352941     0.98451580     0.42564718
     0.34313725     0.02155283     0.42564718
     0.34313725     0.05858987     0.42564718
     0.34313725     0.09562691     0.42564718
     0.34313725     0.13266395     0.42564718
     0.34313725     0.16970098     0.42564718
     0.34313725     0.20673802     0.42564718
     0.34313725     0.24377506     0.42564718
     0.34313725     0.28081209     0.42564718
     0.34313725     0.31784913     0.42564718
     0.34313725     0.35488617     0.42564718
     0.34313725     0.39192320     0.42564718
     0.34313725     0.42896024     0.42564718
     0.34313725     0.46599728     0.42564718
     0.34313725     0.50303432     0.42564718
     0.34313725     0.54007135     0.42564718
     0.34313725     0.57710839     0.42564718
     0.34313725     0.61414543     0.42564718
     0.34313725     0.65118246     0.42564718
     0.34313725     0.68821950     0.42564718
     0.34313725     0.72525654     0.42564718
     0.34313725     0.76229357     0.42564718
     0.34313725     0.79933061     0.42564718
     0.34313725     0.83636765     0.42564718
     0.34313725     0.87340469     0.42564718
     0.34313725     0.91044172     0.42564718
     0.34313725     0.94747876     0.42564718
     0.34313725     0.98451580     0.42564718
     0.36274510     0.02155283     0.42564718
     0.36274510     0.05858987     0.42564718
     0.36274510     0.09562691     0.42564718
     0.36274510     0.13266395     0.42564718
     0.36274510     0.16970098     0.42564718
     0.36274510     0.20673802     0.42564718
     0.36274510     0.24377506     0.42564718
     0.36274510     0.28081209     0.42564718
     0.36274510     0.31784913     0.42564718
     0.36274510     0.35488617     0.42564718
     0.36274510     0.39192320     0.42564718
     0.36274510     0.42896024     0.42564718
     0.36274510     0.46599728     0.42564718
     0.36274510     0.50303432     0.42564718
     0.36274510     0.54007135     0.42564718
     0.36274510     0.57710839     0.42564718
     0.36274510     0.61414543     0.42564718
     0.36274510     0.65118246     0.42564718
     0.36274510     0.68821950     0.42564718
     0.36274510     0.72525654     0.42564718
     0.36274510     0.76229357     0.42564718
     0.36274510     0.79933061     0.42564718
     0.36274510     0.83636765     0.42564718
     0.36274510     0.87340469     0.42564718
     0.36274510     0.91044172     0.42564718
     0.36274510     0.94747876     0.42564718
     0.36274510     0.98451580     0.42564718
     0.38235294     0.02155283     0.42564718
     0.38235294     0.05858987     0.42564718
     0.38235294     0.09562691     0.42564718
     0.38235294     0.13266395     0.42564718
     0.38235294     0.16970098     0.42564718
     0.38235294     0.20673802     0.42564718
     0.38235294     0.24377506     0.42564718
     0.38235294     0.28081209     0.42564718
     0.38235294     0.31784913     0.42564718
     0.38235294     0.35488617     0.42564718
     0.38235294     0.39192320     0.42564718
     0.38235294     0.42896024     0.42564718
     0.38235294     0.46599728     0.42564718
     0.38235294     0.50303432     0.42564718
     0.38235294     0.54007135     0.42564718
     0.38235294     0.57710839     0.42564718
     0.38235294     0.61414543     0.42564718
     0.38235294     0.65118246     0.42564718
     0.38235294     0.68821950     0.42564718
     0.38235294     0.72525654     0.42564718
     0.38235294     0.76229357     0.42564718
     0.38235294     0.79933061     0.42564718
     0.38235294     0.83636765     0.42564718
     0.38235294     0.87340469     0.42564718
     0.38235294     0.91044172     0.42564718
     0.38235294     0.94747876     0.42564718
     0.38235294     0.98451580     0.42564718
     0.40196078     0.02155283     0.42564718
     0.40196078     0.05858987     0.42564718
     0.40196078     0.09562691     0.42564718
     0.40196078     0.13266395     0.42564718
     0.40196078     0.16970098     0.42564718
     0.40196078     0.20673802     0.42564718
     0.40196078     0.24377506     0.42564718
     0.40196078     0.28081209     0.42564718
     0.40196078     0.31784913     0.42564718
     0.40196078     0.35488617     0.42564718
     0.40196078     0.39192320     0.42564718
     0.40196078     0.42896024     0.42564718
     0.40196078     0.46599728     0.42564718
     0.40196078     0.50303432     0.42564718
     0.40196078     0.54007135     0.42564718
     0.40196078     0.57710839     0.42564718
     0.40196078     0.61414543     0.42564718
     0.40196078     0.65118246     0.42564718
     0.40196078     0.68821950     0.42564718
     0.40196078     0.72525654     0.42564718
     0.40196078     0.76229357     0.42564718
     0.40196078     0.79933061     0.42564718
     0.40196078     0.83636765     0.42564718
     0.40196078     0.87340469     0.42564718
     0.40196078     0.91044172     0.42564718
     0.40196078     0.94747876     0.42564718
     0.40196078     0.98451580     0.42564718
     0.42156863     0.02155283     0.42564718
     0.42156863     0.05858987     0.42564718
     0.42156863     0.09562691     0.42564718
     0.42156863     0.13266395     0.42564718
     0.42156863     0.16970098     0.42564718
     0.42156863     0.20673802     0.42564718
     0.42156863     0.24377506     0.42564718
     0.42156863     0.28081209     0.42564718
     0.42156863     0.31784913     0.42564718
     0.42156863     0.35488617     0.42564718
     0.42156863     0.39192320     0.42564718
     0.42156863     0.42896024     0.42564718
     0.42156863     0.46599728     0.42564718
     0.42156863     0.50303432     0.42564718
     0.42156863     0.54007135     0.42564718
     0.42156863     0.57710839     0.42564718
     0.42156863     0.61414543     0.42564718
     0.42156863     0.65118246     0.42564718
     0.42156863     0.68821950     0.42564718
     0.42156863     0.72525654     0.42564718
     0.42156863     0.76229357     0.42564718
     0.42156863     0.79933061     0.42564718
     0.42156863     0.83636765     0.42564718
     0.42156863     0.87340469     0.42564718
     0.42156863     0.91044172     0.42564718
     0.42156863     0.94747876     0.42564718
     0.42156863     0.98451580     0.42564718
     0.44117647     0.02155283     0.42564718
     0.44117647     0.05858987     0.42564718
     0.44117647     0.09562691     0.42564718
     0.44117647     0.13266395     0.42564718
     0.44117647     0.16970098     0.42564718
     0.44117647     0.20673802     0.42564718
     0.44117647     0.24377506     0.42564718
     0.44117647     0.28081209     0.42564718
     0.44117647     0.31784913     0.42564718
     0.44117647     0.35488617     0.42564718
     0.44117647     0.39192320     0.42564718
     0.44117647     0.42896024     0.42564718
     0.44117647     0.46599728     0.42564718
     0.44117647     0.50303432     0.42564718
     0.44117647     0.54007135     0.42564718
     0.44117647     0.57710839     0.42564718
     0.44117647     0.61414543     0.42564718
     0.44117647     0.65118246     0.42564718
     0.44117647     0.68821950     0.42564718
     0.44117647     0.72525654     0.42564718
     0.44117647     0.76229357     0.42564718
     0.44117647     0.79933061     0.42564718
     0.44117647     0.83636765     0.42564718
     0.44117647     0.87340469     0.42564718
     0.44117647     0.91044172     0.42564718
     0.44117647     0.94747876     0.42564718
     0.44117647     0.98451580     0.42564718
     0.46078431     0.02155283     0.42564718
     0.46078431     0.05858987     0.42564718
     0.46078431     0.09562691     0.42564718
     0.46078431     0.13266395     0.42564718
     0.46078431     0.16970098     0.42564718
     0.46078431     0.20673802     0.42564718
     0.46078431     0.24377506     0.42564718
     0.46078431     0.28081209     0.42564718
     0.46078431     0.31784913     0.42564718
     0.46078431     0.35488617     0.42564718
     0.46078431     0.39192320     0.42564718
     0.46078431     0.42896024     0.42564718
     0.46078431     0.46599728     0.42564718
     0.46078431     0.50303432     0.42564718
     0.46078431     0.54007135     0.42564718
     0.46078431     0.57710839     0.42564718
     0.46078431     0.61414543     0.42564718
     0.46078431     0.65118246     0.42564718
     0.46078431     0.68821950     0.42564718
     0.46078431     0.72525654     0.42564718
     0.46078431     0.76229357     0.42564718
     0.46078431     0.79933061     0.42564718
     0.46078431     0.83636765     0.42564718
     0.46078431     0.87340469     0.42564718
     0.46078431     0.91044172     0.42564718
     0.46078431     0.94747876     0.42564718