Generated by Twist2D
    1.0
     112.09798759       0.00000000       0.00000000
       0.00000000      79.74875392       0.00000000
       0.00000000       0.00000000      20.00000000
    P
    4900
Direct
     0.01470588     0.03232925     0.42564718
     0.01470588     0.08788481     0.42564718
     0.01470588     0.14344036     0.42564718
     0.01470588     0.19899592     0.42564718
     0.01470588     0.25455147     0.42564718
     0.01470588     0.31010703     0.42564718
     0.01470588     0.36566258     0.42564718
     0.01470588     0.42121814     0.42564718
     0.01470588     0.47677370     0.42564718
     0.01470588     0.53232925     0.42564718
     0.01470588     0.58788481     0.42564718
     0.01470588     0.64344036     0.42564718
     0.01470588     0.69899592     0.42564718
     0.01470588     0.75455147     0.42564718
     0.01470588     0.81010703     0.42564718
     0.01470588     0.86566258     0.42564718
     0.01470588     0.92121814     0.42564718
     0.01470588     0.97677370     0.42564718
     0.04411765     0.03232925     0.42564718
     0.04411765     0.08788481     0.42564718
     0.04411765     0.14344036     0.42564718
     0.04411765     0.19899592     0.42564718
     0.04411765     0.25455147     0.42564718
     0.04411765     0.31010703     0.42564718
     0.04411765     0.36566258     0.42564718
     0.04411765     0.42121814     0.42564718
     0.04411765     0.47677370     0.42564718
     0.04411765     0.53232925     0.42564718
     0.04411765     0.58788481     0.42564718
     0.04411765     0.64344036     0.42564718
     0.04411765     0.69899592     0.42564718
     0.04411765     0.75455147     0.42564718
     0.04411765     0.81010703     0.42564718
     0.04411765     0.86566258     0.42564718
     0.04411765     0.92121814     0.42564718
     0.04411765     0.97677370     0.42564718
     0.07352941     0.03232925     0.42564718
     0.07352941     0.08788481     0.42564718
     0.07352941     0.14344036     0.42564718
     0.07352941     0.19899592     0.42564718
     0.07352941     0.25455147     0.42564718
     0.07352941     0.31010703     0.42564718
     0.07352941     0.36566258     0.42564718
     0.07352941     0.42121814     0.42564718
     0.07352941     0.47677370     0.42564718
     0.07352941     0.53232925     0.42564718
     0.07352941     0.58788481     0.42564718
     0.07352941     0.64344036     0.42564718
     0.07352941     0.69899592     0.42564718
     0.07352941     0.75455147     0.42564718
     0.07352941     0.81010703     0.42564718
     0.07352941     0.86566258     0.42564718
     0.07352941     0.92121814     0.42564718
     0.07352941     0.97677370     0.42564718
     0.10294118     0.03232925     0.42564718
     0.10294118     0.08788481     0.42564718
     0.10294118     0.14344036     0.42564718
     0.10294118     0.19899592     0.42564718
     0.10294118     0.25455147     0.42564718
     0.10294118     0.31010703     0.42564718
     0.10294118     0.36566258     0.42564718
     0.10294118     0.42121814     0.42564718
     0.10294118     0.47677370     0.42564718
     0.10294118     0.53232925     0.42564718
     0.10294118     0.58788481     0.42564718
     0.10294118     0.64344036     0.42564718
     0.10294118     0.69899592     0.42564718
     0.10294118     0.75455147     0.42564718
     0.10294118     0.81010703     0.42564718
     0.10294118     0.86566258     0.42564718
     0.10294118     0.92121814     0.42564718
     0.10294118     0.97677370     0.42564718
     0.13235294     0.03232925     0.42564718
     0.13235294     0.08788481     0.42564718
     0.13235294     0.14344036     0.42564718
     0.13235294     0.19899592     0.42564718
     0.13235294     0.25455147     0.42564718
     0.13235294     0.31010703     0.42564718
     0.13235294     0.36566258     0.42564718
     0.13235294     0.42121814     0.42564718
     0.13235294     0.47677370     0.42564718
     0.13235294     0.53232925     0.42564718
     0.13235294     0.58788481     0.42564718
     0.13235294     0.64344036     0.42564718
     0.13235294     0.69899592     0.42564718
     0.13235294     0.75455147     0.42564718
     0.13235294     0.81010703     0.42564718
     0.13235294     0.86566258     0.42564718
     0.13235294     0.92121814     0.42564718
     0.13235294     0.97677370     0.42564718
     0.16176471     0.03232925     0.42564718
     0.16176471     0.08788481     0.42564718
     0.16176471     0.14344036     0.42564718
     0.16176471     0.19899592     0.42564718
     0.16176471     0.25455147     0.42564718
     0.16176471     0.31010703     0.42564718
     0.16176471     0.36566258     0.42564718
     0.16176471     0.42121814     0.42564718
     0.16176471     0.47677370     0.42564718
     0.16176471     0.53232925     0.42564718
     0.16176471     0.58788481     0.42564718
     0.16176471     0.64344036     0.42564718
     0.16176471     0.69899592     0.42564718
     0.16176471     0.75455147     0.42564718
     0.16176471     0.81010703     0.42564718
     0.16176471     0.86566258     0.42564718
     0.16176471     0.92121814     0.42564718
     0.16176471     0.97677370     0.42564718
     0.19117647     0.03232925     0.42564718
     0.19117647     0.08788481     0.42564718
     0.19117647     0.14344036     0.42564718
     0.19117647     0.19899592     0.42564718
     0.19117647     0.25455147     0.42564718
     0.19117647     0.31010703     0.42564718
     0.19117647     0.36566258     0.42564718
     0.19117647     0.42121814     0.42564718
     0.19117647     0.47677370     0.42564718
     0.19117647     0.53232925     0.42564718
     0.19117647     0.58788481     0.42564718
     0.19117647     0.64344036     0.42564718
     0.19117647     0.69899592     0.42564718
     0.19117647     0.75455147     0.42564718
     0.19117647     0.81010703     0.42564718
     0.19117647     0.86566258     0.42564718
     0.19117647     0.92121814     0.42564718
     0.19117647     0.97677370     0.42564718
     0.22058824     0.03232925     0.42564718
     0.22058824     0.08788481     0.42564718
     0.22058824     0.14344036     0.42564718
     0.22058824     0.19899592     0.42564718
     0.22058824     0.25455147     0.42564718
     0.22058824     0.31010703     0.42564718
     0.22058824     0.36566258     0.42564718
     0.22058824     0.42121814     0.42564718
     0.22058824     0.47677370     0.42564718
     0.22058824     0.53232925     0.42564718
     0.22058824     0.58788481     0.42564718
     0.22058824     0.64344036     0.42564718
     0.22058824     0.69899592     0.42564718
     0.22058824     0.75455147     0.42564718
     0.22058824     0.81010703     0.42564718
     0.22058824     0.86566258     0.42564718
     0.22058824     0.92121814     0.42564718
     0.22058824     0.97677370     0.42564718
     0.25000000     0.03232925     0.42564718
     0.25000000     0.08788481     0.42564718
     0.25000000     0.14344036     0.42564718
     0.25000000     0.19899592     0.42564718
     0.25000000     0.25455147     0.42564718
     0.25000000     0.31010703     0.42564718
     0.25000000     0.36566258     0.42564718
     0.25000000     0.42121814     0.42564718
     0.25000000     0.47677370     0.42564718
     0.25000000     0.53232925     0.42564718
     0.25000000     0.58788481     0.42564718
     0.25000000     0.64344036     0.42564718
     0.25000000     0.69899592     0.42564718
     0.25000000     0.75455147     0.42564718
     0.25000000     0.81010703     0.42564718
     0.25000000     0.86566258     0.42564718
     0.25000000     0.92121814     0.42564718
     0.25000000     0.97677370     0.42564718
     0.27941176     0.03232925     0.42564718
     0.27941176     0.08788481     0.42564718
     0.27941176     0.14344036     0.42564718
     0.27941176     0.19899592     0.42564718
     0.27941176     0.25455147     0.42564718
     0.27941176     0.31010703     0.42564718
     0.27941176     0.36566258     0.42564718
     0.27941176     0.42121814     0.42564718
     0.27941176     0.47677370     0.42564718
     0.27941176     0.53232925     0.42564718
     0.27941176     0.58788481     0.42564718
     0.27941176     0.64344036     0.42564718
     0.27941176     0.69899592     0.42564718
     0.27941176     0.75455147     0.42564718
     0.27941176     0.81010703     0.42564718
     0.27941176     0.86566258     0.42564718
     0.27941176     0.92121814     0.42564718
     0.27941176     0.97677370     0.42564718
     0.30882353     0.03232925     0.42564718
     0.30882353     0.08788481     0.42564718
     0.30882353     0.14344036     0.42564718
     0.30882353     0.19899592     0.42564718
     0.30882353     0.25455147     0.42564718
     0.30882353     0.31010703     0.42564718
     0.30882353     0.36566258     0.42564718
     0.30882353     0.42121814     0.42564718
     0.30882353     0.47677370     0.42564718
     0.30882353     0.53232925     0.42564718
     0.30882353     0.58788481     0.42564718
     0.30882353     0.64344036     0.42564718
     0.30882353     0.69899592     0.42564718
     0.30882353     0.75455147     0.42564718
     0.30882353     0.81010703     0.42564718
     0.30882353     0.86566258     0.42564718
     0.30882353     0.92121814     0.42564718
     0.30882353     0.97677370     0.42564718
     0.33823529     0.03232925     0.42564718
     0.33823529     0.08788481     0.42564718
     0.33823529     0.14344036     0.42564718
     0.33823529     0.19899592     0.42564718
     0.33823529     0.25455147     0.42564718
     0.33823529     0.31010703     0.42564718
     0.33823529     0.36566258     0.42564718
     0.33823529     0.42121814     0.42564718
     0.33823529     0.47677370     0.42564718
     0.33823529     0.53232925     0.42564718
     0.33823529     0.58788481     0.42564718
     0.33823529     0.64344036     0.42564718
     0.33823529     0.69899592     0.42564718
     0.33823529     0.75455147     0.42564718
     0.33823529     0.81010703     0.42564718
     0.33823529     0.86566258     0.42564718
     0.33823529     0.92121814     0.42564718
     0.33823529     0.97677370     0.42564718
     0.36764706     0.03232925     0.42564718
     0.36764706     0.08788481     0.42564718
     0.36764706     0.14344036     0.42564718
     0.36764706     0.19899592     0.42564718
     0.36764706     0.25455147     0.42564718
     0.36764706     0.31010703     0.42564718
     0.36764706     0.36566258     0.42564718
     0.36764706     0.42121814     0.42564718
     0.36764706     0.47677370     0.42564718
     0.36764706     0.53232925     0.42564718
     0.36764706     0.58788481     0.42564718
     0.36764706     0.64344036     0.42564718
     0.36764706     0.69899592     0.42564718
     0.36764706     0.75455147     0.42564718
     0.36764706     0.81010703     0.42564718
     0.36764706     0.86566258     0.42564718
     0.36764706     0.92121814     0.42564718
     0.36764706     0.97677370     0.42564718
     0.39705882     0.03232925     0.42564718
     0.39705882     0.08788481     0.42564718
     0.39705882     0.14344036     0.42564718
     0.39705882     0.19899592     0.42564718
     0.39705882     0.25455147     0.42564718
     0.39705882     0.31010703     0.42564718
     0.39705882     0.36566258     0.42564718
     0.39705882     0.42121814     0.42564718
     0.39705882     0.47677370     0.42564718
     0.39705882     0.53232925     0.42564718
     0.39705882     0.58788481     0.42564718
     0.39705882     0.64344036     0.42564718
     0.39705882     0.69899592     0.42564718
     0.39705882     0.75455147     0.42564718
     0.39705882     0.81010703     0.42564718
     0.39705882     0.86566258     0.42564718
     0.39705882     0.92121814     0.42564718
     0.39705882     0.97677370     0.42564718
     0.42647059     0.03232925     0.42564718
     0.42647059     0.08788481     0.42564718
     0.42647059     0.14344036     0.42564718
     0.42647059     0.19899592     0.42564718
     0.42647059     0.25455147     0.42564718
     0.42647059     0.31010703     0.42564718
     0.42647059     0.36566258     0.42564718
     0.42647059     0.42121814     0.42564718
     0.42647059     0.47677370     0.42564718
     0.42647059     0.53232925     0.42564718
     0.42647059     0.58788481     0.42564718
     0.42647059     0.64344036     0.42564718
     0.42647059     0.69899592     0.42564718
     0.42647059     0.75455147     0.42564718
     0.42647059     0.81010703     0.42564718
     0.42647059     0.86566258     0.42564718
     0.42647059     0.92121814     0.42564718
     0.42647059     0.97677370     0.42564718
     0.45588235     0.03232925     0.42564718
     0.45588235     0.08788481     0.42564718
     0.45588235     0.14344036     0.42564718
     0.45588235     0.19899592     0.42564718
     0.45588235     0.25455147     0.42564718
     0.45588235     0.31010703     0.42564718
     0.45588235     0.36566258     0.42564718
     0.45588235     0.42121814     0.42564718
     0.45588235     0.47677370     0.42564718
     0.45588235     0.53232925     0.42564718
     0.45588235     0.58788481     0.42564718
     0.45588235     0.64344036     0.42564718
     0.45588235     0.69899592     0.42564718
     0.45588235     0.75455147     0.42564718
     0.45588235     0.81010703     0.42564718
     0.45588235     0.86566258     0.42564718
     0.45588235     0.92121814     0.42564718
     0.45588235     0.97677370     0.42564718
     0.48529412     0.03232925     0.42564718
     0.48529412     0.08788481     0.42564718
     0.48529412     0.14344036     0.42564718
     0.48529412     0.19899592     0.42564718
     0.48529412     0.25455147     0.42564718
     0.48529412     0.31010703     0.42564718
     0.48529412     0.36566258     0.42564718
     0.48529412     0.42121814     0.42564718
     0.48529412     0.47677370     0.42564718
     0.48529412     0.53232925     0.42564718
     0.48529412     0.58788481     0.42564718
     0.48529412     0.64344036     0.42564718
     0.48529412     0.69899592     0.42564718
     0.48529412     0.75455147     0.42564718
     0.48529412     0.81010703     0.42564718
     0.48529412     0.86566258     0.42564718
     0.48529412     0.92121814     0.42564718
     0.48529412     0.97677370     0.42564718
     0.51470588     0.03232925     0.42564718
     0.51470588     0.08788481     0.42564718
     0.51470588     0.14344036     0.42564718
     0.51470588     0.19899592     0.42564718
     0.51470588     0.25455147     0.42564718
     0.51470588     0.31010703     0.42564718
     0.51470588     0.36566258     0.42564718
     0.51470588     0.42121814     0.42564718
     0.51470588     0.47677370     0.42564718
     0.51470588     0.53232925     0.42564718
     0.51470588     0.58788481     0.42564718
     0.51470588     0.64344036     0.42564718
     0.51470588     0.69899592     0.42564718
     0.51470588     0.75455147     0.42564718
     0.51470588     0.81010703     0.42564718
     0.51470588     0.86566258     0.42564718
     0.51470588     0.92121814     0.42564718
     0.51470588     0.97677370     0.42564718
     0.54411765     0.03232925     0.42564718
     0.54411765     0.08788481     0.42564718
     0.54411765     0.14344036     0.42564718
     0.54411765     0.19899592     0.42564718
     0.54411765     0.25455147     0.42564718
     0.54411765     0.31010703     0.42564718
     0.54411765     0.36566258     0.42564718
     0.54411765     0.42121814     0.42564718
     0.54411765     0.47677370     0.42564718
     0.54411765     0.53232925     0.42564718
     0.54411765     0.58788481     0.42564718
     0.54411765     0.64344036     0.42564718
     0.54411765     0.69899592     0.42564718
     0.54411765     0.75455147     0.42564718
     0.54411765     0.81010703     0.42564718
     0.54411765     0.86566258     0.42564718
     0.54411765     0.92121814     0.42564718
     0.54411765     0.97677370     0.42564718
     0.57352941     0.03232925     0.42564718
     0.57352941     0.08788481     0.42564718
     0.57352941     0.14344036     0.42564718
     0.57352941     0.19899592     0.42564718
     0.57352941     0.25455147     0.42564718
     0.57352941     0.31010703     0.42564718
     0.57352941     0.36566258     0.42564718
     0.57352941     0.42121814     0.42564718
     0.57352941     0.47677370     0.42564718
     0.57352941     0.53232925     0.42564718
     0.57352941     0.58788481     0.42564718
     0.57352941     0.64344036     0.42564718
     0.57352941     0.69899592     0.42564718
     0.57352941     0.75455147     0.42564718
     0.57352941     0.81010703     0.42564718
     0.57352941     0.86566258     0.42564718
     0.57352941     0.92121814     0.42564718
     0.57352941     0.97677370     0.42564718
     0.60294118     0.03232925     0.42564718
     0.60294118     0.08788481     0.42564718
     0.60294118     0.14344036     0.42564718
     0.60294118     0.19899592     0.42564718
     0.60294118     0.25455147     0.42564718
     0.60294118     0.31010703     0.42564718
     0.60294118     0.36566258     0.42564718
     0.60294118     0.42121814     0.42564718
     0.60294118     0.47677370     0.42564718
     0.60294118     0.53232925     0.42564718
     0.60294118     0.58788481     0.42564718
     0.60294118     0.64344036     0.42564718
     0.60294118     0.69899592     0.42564718
     0.60294118     0.75455147     0.42564718
     0.60294118     0.81010703     0.42564718
     0.60294118     0.86566258     0.42564718
     0.60294118     0.92121814     0.42564718
     0.60294118     0.97677370     0.42564718
     0.63235294     0.03232925     0.42564718
     0.63235294     0.08788481     0.42564718
     0.63235294     0.14344036     0.42564718
     0.63235294     0.19899592     0.42564718
     0.63235294     0.25455147     0.42564718
     0.63235294     0.31010703     0.42564718
     0.63235294     0.36566258     0.42564718
     0.63235294     0.42121814     0.42564718
     0.63235294     0.47677370     0.42564718
     0.63235294     0.53232925     0.42564718
     0.63235294     0.58788481     0.42564718
     0.63235294     0.64344036     0.42564718
     0.63235294     0.69899592     0.42564718
     0.63235294     0.75455147     0.42564718
     0.63235294     0.81010703     0.42564718
     0.63235294     0.86566258     0.42564718
     0.63235294     0.92121814     0.42564718
     0.63235294     0.97677370     0.42564718
     0.66176471     0.03232925     0.42564718
     0.66176471     0.08788481     0.42564718
     0.66176471     0.14344036     0.42564718
     0.66176471     0.19899592     0.42564718
     0.66176471     0.25455147     0.42564718
     0.66176471     0.31010703     0.42564718
     0.66176471     0.36566258     0.42564718
     0.66176471     0.42121814     0.42564718
     0.66176471     0.47677370     0.42564718
     0.66176471     0.53232925     0.42564718
     0.66176471     0.58788481     0.42564718
     0.66176471     0.64344036     0.42564718
     0.66176471     0.69899592     0.42564718
     0.66176471     0.75455147     0.42564718
     0.66176471     0.81010703     0.42564718
     0.66176471     0.86566258     0.42564718
     0.66176471     0.92121814     0.42564718
     0.66176471     0.97677370     0.42564718
     0.69117647     0.03232925     0.42564718
     0.69117647     0.08788481     0.42564718
     0.69117647     0.14344036     0.42564718
     0.69117647     0.19899592     0.42564718
     0.69117647     0.25455147     0.42564718
     0.69117647     0.31010703     0.42564718
     0.69117647     0.36566258     0.42564718
     0.69117647     0.42121814     0.42564718
     0.69117647     0.47677370     0.42564718
     0.69117647     0.53232925     0.42564718
     0.69117647     0.58788481     0.42564718
     0.69117647     0.64344036     0.42564718
     0.69117647     0.69899592     0.42564718
     0.69117647     0.75455147     0.42564718
     0.69117647     0.81010703     0.42564718
     0.69117647     0.86566258     0.42564718
     0.69117647     0.92121814     0.42564718
     0.69117647     0.97677370     0.42564718
     0.72058824     0.03232925     0.42564718
     0.72058824     0.08788481     0.42564718
     0.72058824     0.14344036     0.42564718
     0.72058824     0.19899592     0.42564718
     0.72058824     0.25455147     0.42564718
     0.72058824     0.31010703     0.42564718
     0.72058824     0.36566258     0.42564718
     0.72058824     0.42121814     0.42564718
     0.72058824     0.47677370     0.42564718
     0.72058824     0.53232925     0.42564718
     0.72058824     0.58788481     0.42564718
     0.72058824     0.64344036     0.42564718
     0.72058824     0.69899592     0.42564718
     0.72058824     0.75455147     0.42564718
     0.72058824     0.81010703     0.42564718
     0.72058824     0.86566258     0.42564718
     0.72058824     0.92121814     0.42564718
     0.72058824     0.97677370     0.42564718
     0.75000000     0.03232925     0.42564718
     0.75000000     0.08788481     0.42564718
     0.75000000     0.14344036     0.42564718
     0.75000000     0.19899592     0.42564718
     0.75000000     0.25455147     0.42564718
     0.75000000     0.31010703     0.42564718
     0.75000000     0.36566258     0.42564718
     0.75000000     0.42121814     0.42564718
     0.75000000     0.47677370     0.42564718
     0.75000000     0.53232925     0.42564718
     0.75000000     0.58788481     0.42564718
     0.75000000     0.64344036     0.42564718
     0.75000000     0.69899592     0.42564718
     0.75000000     0.75455147     0.42564718
     0.75000000     0.81010703     0.42564718
     0.75000000     0.86566258     0.42564718
     0.75000000     0.92121814     0.42564718
     0.75000000     0.97677370     0.42564718
     0.77941176     0.03232925     0.42564718
     0.77941176     0.08788481     0.42564718
     0.77941176     0.14344036     0.42564718
     0.77941176     0.19899592     0.42564718
     0.77941176     0.25455147     0.42564718
     0.77941176     0.31010703     0.42564718
     0.77941176     0.36566258     0.42564718
     0.77941176     0.42121814     0.42564718
     0.77941176     0.47677370     0.42564718
     0.77941176     0.53232925     0.42564718
     0.77941176     0.58788481     0.42564718
     0.77941176     0.64344036     0.42564718
     0.77941176     0.69899592     0.42564718
     0.77941176     0.75455147     0.42564718
     0.77941176     0.81010703     0.42564718
     0.77941176     0.86566258     0.42564718
     0.77941176     0.92121814     0.42564718
     0.77941176     0.97677370     0.42564718
     0.80882353     0.03232925     0.42564718
     0.80882353     0.08788481     0.42564718
     0.80882353     0.14344036     0.42564718
     0.80882353     0.19899592     0.42564718
     0.80882353     0.25455147     0.42564718
     0.80882353     0.31010703     0.42564718
     0.80882353     0.36566258     0.42564718
     0.80882353     0.42121814     0.42564718
     0.80882353     0.47677370     0.42564718
     0.80882353     0.53232925     0.42564718
     0.80882353     0.58788481     0.42564718
     0.80882353     0.64344036     0.42564718
     0.80882353     0.69899592     0.42564718
     0.80882353     0.75455147     0.42564718
     0.80882353     0.81010703     0.42564718
     0.80882353     0.86566258     0.42564718
     0.80882353     0.92121814     0.42564718
     0.80882353     0.97677370     0.42564718
     0.83823529     0.03232925     0.42564718
     0.83823529     0.08788481     0.42564718
     0.83823529     0.14344036     0.42564718
     0.83823529     0.19899592     0.42564718
     0.83823529     0.25455147     0.42564718
     0.83823529     0.31010703     0.42564718
     0.83823529     0.36566258     0.42564718
     0.83823529     0.42121814     0.42564718
     0.83823529     0.47677370     0.42564718
     0.83823529     0.53232925     0.42564718
     0.83823529     0.58788481     0.42564718
     0.83823529     0.64344036     0.42564718
     0.83823529     0.69899592     0.42564718
     0.83823529     0.75455147     0.42564718
     0.83823529     0.81010703     0.42564718
     0.83823529     0.86566258     0.42564718
     0.83823529     0.92121814     0.42564718
     0.83823529     0.97677370     0.42564718
     0.86764706     0.03232925     0.42564718
     0.86764706     0.08788481     0.42564718
     0.86764706     0.14344036     0.42564718
     0.86764706     0.19899592     0.42564718
     0.86764706     0.25455147     0.42564718
     0.86764706     0.31010703     0.42564718
     0.86764706     0.36566258     0.42564718
     0.86764706     0.42121814     0.42564718
     0.86764706     0.47677370     0.42564718
     0.86764706     0.53232925     0.42564718
     0.86764706     0.58788481     0.42564718
     0.86764706     0.64344036     0.42564718
     0.86764706     0.69899592     0.42564718
     0.86764706     0.75455147     0.42564718
     0.86764706     0.81010703     0.42564718
     0.86764706     0.86566258     0.42564718
     0.86764706     0.92121814     0.42564718
     0.86764706     0.97677370     0.42564718
     0.89705882     0.03232925     0.42564718
     0.89705882     0.08788481     0.42564718
     0.89705882     0.14344036     0.42564718
     0.89705882     0.19899592     0.42564718
     0.89705882     0.25455147     0.42564718
     0.89705882     0.31010703     0.42564718
     0.89705882     0.36566258     0.42564718
     0.89705882     0.42121814     0.42564718
     0.89705882     0.47677370     0.42564718
     0.89705882     0.53232925     0.42564718
     0.89705882     0.58788481     0.42564718
     0.89705882     0.64344036     0.42564718
     0.89705882     0.69899592     0.42564718
     0.89705882     0.75455147     0.42564718
     0.89705882     0.81010703     0.42564718
     0.89705882     0.86566258     0.42564718
     0.89705882     0.92121814     0.42564718
     0.89705882     0.97677370     0.42564718
     0.92647059     0.03232925     0.42564718
     0.92647059     0.08788481     0.42564718
     0.92647059     0.14344036     0.42564718
     0.92647059     0.19899592     0.42564718
     0.92647059     0.25455147     0.42564718
     0.92647059     0.31010703     0.42564718
     0.92647059     0.36566258     0.42564718
     0.92647059     0.42121814     0.42564718
     0.92647059     0.47677370     0.42564718
     0.92647059     0.53232925     0.42564718
     0.92647059     0.58788481     0.42564718
     0.92647059     0.64344036     0.42564718
     0.92647059     0.69899592     0.42564718
     0.92647059     0.75455147     0.42564718
     0.92647059     0.81010703     0.42564718
     0.92647059     0.86566258     0.42564718
     0.92647059     0.92121814     0.42564718
     0.92647059     0.97677370     0.42564718
     0.95588235     0.03232925     0.42564718
     0.95588235     0.08788481     0.42564718
     0.95588235     0.14344036     0.42564718
     0.95588235     0.19899592     0.42564718
     0.95588235     0.25455147     0.42564718
     0.95588235     0.31010703     0.42564718
     0.95588235     0.36566258     0.42564718
     0.95588235     0.42121814     0.42564718
     0.95588235     0.47677370     0.42564718
     0.95588235     0.53232925     0.42564718
     0.95588235     0.58788481     0.42564718
     0.95588235     0.64344036     0.42564718
     0.95588235     0.69899592     0.42564718
     0.95588235     0.75455147     0.42564718
     0.95588235     0.81010703     0.42564718
     0.95588235     0.86566258     0.42564718
     0.95588235     0.92121814     0.42564718
     0.95588235     0.97677370     0.42564718
     0.98529412     0.03232925     0.42564718
     0.98529412     0.08788481     0.42564718
     0.98529412     0.14344036     0.42564718
     0.98529412     0.19899592     0.42564718
     0.98529412     0.25455147     0.42564718
     0.98529412     0.31010703     0.42564718
     0.98529412     0.36566258     0.42564718
     0.98529412     0.42121814     0.42564718
     0.98529412     0.47677370     0.42564718
     0.98529412     0.53232925     0.42564718
     0.98529412     0.58788481     0.42564718
     0.98529412     0.64344036     0.42564718
     0.98529412     0.69899592     0.42564718
     0.98529412     0.75455147     0.42564718
     0.98529412     0.81010703     0.42564718
     0.98529412     0.86566258     0.42564718
     0.98529412     0.92121814     0.42564718
     0.98529412     0.97677370     0.42564718
     0.01470588     0.02319638     0.31941913
     0.01470588     0.07875193     0.31941913
     0.01470588     0.13430749     0.31941913
     0.01470588     0.18986304     0.31941913
     0.01470588     0.24541860     0.31941913
     0.01470588     0.30097416     0.31941913
     0.01470588     0.35652971     0.31941913
     0.01470588     0.41208527     0.31941913
     0.01470588     0.46764082     0.31941913
     0.01470588     0.52319638     0.31941913
     0.01470588     0.57875193     0.31941913
     0.01470588     0.63430749     0.31941913
     0.01470588     0.68986304     0.31941913
     0.01470588     0.74541860     0.31941913
     0.01470588     0.80097416     0.31941913
     0.01470588     0.85652971     0.31941913
     0.01470588     0.91208527     0.31941913
     0.01470588     0.96764082     0.31941913
     0.04411765     0.02319638     0.31941913
     0.04411765     0.07875193     0.31941913
     0.04411765     0.13430749     0.31941913
     0.04411765     0.18986304     0.31941913
     0.04411765     0.24541860     0.31941913
     0.04411765     0.30097416     0.31941913
     0.04411765     0.35652971     0.31941913
     0.04411765     0.41208527     0.31941913
     0.04411765     0.46764082     0.31941913
     0.04411765     0.52319638     0.31941913
     0.04411765     0.57875193     0.31941913
     0.04411765     0.63430749     0.31941913
     0.04411765     0.68986304     0.31941913
     0.04411765     0.74541860     0.31941913
     0.04411765     0.80097416     0.31941913
     0.04411765     0.85652971     0.31941913
     0.04411765     0.91208527     0.31941913