Generated by Twist2D
    1.0
     112.09798759       0.00000000       0.00000000
       0.00000000      84.17924025       0.00000000
       0.00000000       0.00000000      20.00000000
    P
    5172
Direct
     0.01470588     0.03062771     0.42564718
     0.01470588     0.08325929     0.42564718
     0.01470588     0.13589087     0.42564718
     0.01470588     0.18852245     0.42564718
     0.01470588     0.24115403     0.42564718
     0.01470588     0.29378561     0.42564718
     0.01470588     0.34641719     0.42564718
     0.01470588     0.39904876     0.42564718
     0.01470588     0.45168034     0.42564718
     0.01470588     0.50431192     0.42564718
     0.01470588     0.55694350     0.42564718
     0.01470588     0.60957508     0.42564718
     0.01470588     0.66220666     0.42564718
     0.01470588     0.71483824     0.42564718
     0.01470588     0.76746982     0.42564718
     0.01470588     0.82010140     0.42564718
     0.01470588     0.87273297     0.42564718
     0.01470588     0.92536455     0.42564718
     0.01470588     0.97799613     0.42564718
     0.04411765     0.03062771     0.42564718
     0.04411765     0.08325929     0.42564718
     0.04411765     0.13589087     0.42564718
     0.04411765     0.18852245     0.42564718
     0.04411765     0.24115403     0.42564718
     0.04411765     0.29378561     0.42564718
     0.04411765     0.34641719     0.42564718
     0.04411765     0.39904876     0.42564718
     0.04411765     0.45168034     0.42564718
     0.04411765     0.50431192     0.42564718
     0.04411765     0.55694350     0.42564718
     0.04411765     0.60957508     0.42564718
     0.04411765     0.66220666     0.42564718
     0.04411765     0.71483824     0.42564718
     0.04411765     0.76746982     0.42564718
     0.04411765     0.82010140     0.42564718
     0.04411765     0.87273297     0.42564718
     0.04411765     0.92536455     0.42564718
     0.04411765     0.97799613     0.42564718
     0.07352941     0.03062771     0.42564718
     0.07352941     0.08325929     0.42564718
     0.07352941     0.13589087     0.42564718
     0.07352941     0.18852245     0.42564718
     0.07352941     0.24115403     0.42564718
     0.07352941     0.29378561     0.42564718
     0.07352941     0.34641719     0.42564718
     0.07352941     0.39904876     0.42564718
     0.07352941     0.45168034     0.42564718
     0.07352941     0.50431192     0.42564718
     0.07352941     0.55694350     0.42564718
     0.07352941     0.60957508     0.42564718
     0.07352941     0.66220666     0.42564718
     0.07352941     0.71483824     0.42564718
     0.07352941     0.76746982     0.42564718
     0.07352941     0.82010140     0.42564718
     0.07352941     0.87273297     0.42564718
     0.07352941     0.92536455     0.42564718
     0.07352941     0.97799613     0.42564718
     0.10294118     0.03062771     0.42564718
     0.10294118     0.08325929     0.42564718
     0.10294118     0.13589087     0.42564718
     0.10294118     0.18852245     0.42564718
     0.10294118     0.24115403     0.42564718
     0.10294118     0.29378561     0.42564718
     0.10294118     0.34641719     0.42564718
     0.10294118     0.39904876     0.42564718
     0.10294118     0.45168034     0.42564718
     0.10294118     0.50431192     0.42564718
     0.10294118     0.55694350     0.42564718
     0.10294118     0.60957508     0.42564718
     0.10294118     0.66220666     0.42564718
     0.10294118     0.71483824     0.42564718
     0.10294118     0.76746982     0.42564718
     0.10294118     0.82010140     0.42564718
     0.10294118     0.87273297     0.42564718
     0.10294118     0.92536455     0.42564718
     0.10294118     0.97799613     0.42564718
     0.13235294     0.03062771     0.42564718
     0.13235294     0.08325929     0.42564718
     0.13235294     0.13589087     0.42564718
     0.13235294     0.18852245     0.42564718
     0.13235294     0.24115403     0.42564718
     0.13235294     0.29378561     0.42564718
     0.13235294     0.34641719     0.42564718
     0.13235294     0.39904876     0.42564718
     0.13235294     0.45168034     0.42564718
     0.13235294     0.50431192     0.42564718
     0.13235294     0.55694350     0.42564718
     0.13235294     0.60957508     0.42564718
     0.13235294     0.66220666     0.42564718
     0.13235294     0.71483824     0.42564718
     0.13235294     0.76746982     0.42564718
     0.13235294     0.82010140     0.42564718
     0.13235294     0.87273297     0.42564718
     0.13235294     0.92536455     0.42564718
     0.13235294     0.97799613     0.42564718
     0.16176471     0.03062771     0.42564718
     0.16176471     0.08325929     0.42564718
     0.16176471     0.13589087     0.42564718
     0.16176471     0.18852245     0.42564718
     0.16176471     0.24115403     0.42564718
     0.16176471     0.29378561     0.42564718
     0.16176471     0.34641719     0.42564718
     0.16176471     0.39904876     0.42564718
     0.16176471     0.45168034     0.42564718
     0.16176471     0.50431192     0.42564718
     0.16176471     0.55694350     0.42564718
     0.16176471     0.60957508     0.42564718
     0.16176471     0.66220666     0.42564718
     0.16176471     0.71483824     0.42564718
     0.16176471     0.76746982     0.42564718
     0.16176471     0.82010140     0.42564718
     0.16176471     0.87273297     0.42564718
     0.16176471     0.92536455     0.42564718
     0.16176471     0.97799613     0.42564718
     0.19117647     0.03062771     0.42564718
     0.19117647     0.08325929     0.42564718
     0.19117647     0.13589087     0.42564718
     0.19117647     0.18852245     0.42564718
     0.19117647     0.24115403     0.42564718
     0.19117647     0.29378561     0.42564718
     0.19117647     0.34641719     0.42564718
     0.19117647     0.39904876     0.42564718
     0.19117647     0.45168034     0.42564718
     0.19117647     0.50431192     0.42564718
     0.19117647     0.55694350     0.42564718
     0.19117647     0.60957508     0.42564718
     0.19117647     0.66220666     0.42564718
     0.19117647     0.71483824     0.42564718
     0.19117647     0.76746982     0.42564718
     0.19117647     0.82010140     0.42564718
     0.19117647     0.87273297     0.42564718
     0.19117647     0.92536455     0.42564718
     0.19117647     0.97799613     0.42564718
     0.22058824     0.03062771     0.42564718
     0.22058824     0.08325929     0.42564718
     0.22058824     0.13589087     0.42564718
     0.22058824     0.18852245     0.42564718
     0.22058824     0.24115403     0.42564718
     0.22058824     0.29378561     0.42564718
     0.22058824     0.34641719     0.42564718
     0.22058824     0.39904876     0.42564718
     0.22058824     0.45168034     0.42564718
     0.22058824     0.50431192     0.42564718
     0.22058824     0.55694350     0.42564718
     0.22058824     0.60957508     0.42564718
     0.22058824     0.66220666     0.42564718
     0.22058824     0.71483824     0.42564718
     0.22058824     0.76746982     0.42564718
     0.22058824     0.82010140     0.42564718
     0.22058824     0.87273297     0.42564718
     0.22058824     0.92536455     0.42564718
     0.22058824     0.97799613     0.42564718
     0.25000000     0.03062771     0.42564718
     0.25000000     0.08325929     0.42564718
     0.25000000     0.13589087     0.42564718
     0.25000000     0.18852245     0.42564718
     0.25000000     0.24115403     0.42564718
     0.25000000     0.29378561     0.42564718
     0.25000000     0.34641719     0.42564718
     0.25000000     0.39904876     0.42564718
     0.25000000     0.45168034     0.42564718
     0.25000000     0.50431192     0.42564718
     0.25000000     0.55694350     0.42564718
     0.25000000     0.60957508     0.42564718
     0.25000000     0.66220666     0.42564718
     0.25000000     0.71483824     0.42564718
     0.25000000     0.76746982     0.42564718
     0.25000000     0.82010140     0.42564718
     0.25000000     0.87273297     0.42564718
     0.25000000     0.92536455     0.42564718
     0.25000000     0.97799613     0.42564718
     0.27941176     0.03062771     0.42564718
     0.27941176     0.08325929     0.42564718
     0.27941176     0.13589087     0.42564718
     0.27941176     0.18852245     0.42564718
     0.27941176     0.24115403     0.42564718
     0.27941176     0.29378561     0.42564718
     0.27941176     0.34641719     0.42564718
     0.27941176     0.39904876     0.42564718
     0.27941176     0.45168034     0.42564718
     0.27941176     0.50431192     0.42564718
     0.27941176     0.55694350     0.42564718
     0.27941176     0.60957508     0.42564718
     0.27941176     0.66220666     0.42564718
     0.27941176     0.71483824     0.42564718
     0.27941176     0.76746982     0.42564718
     0.27941176     0.82010140     0.42564718
     0.27941176     0.87273297     0.42564718
     0.27941176     0.92536455     0.42564718
     0.27941176     0.97799613     0.42564718
     0.30882353     0.03062771     0.42564718
     0.30882353     0.08325929     0.42564718
     0.30882353     0.13589087     0.42564718
     0.30882353     0.18852245     0.42564718
     0.30882353     0.24115403     0.42564718
     0.30882353     0.29378561     0.42564718
     0.30882353     0.34641719     0.42564718
     0.30882353     0.39904876     0.42564718
     0.30882353     0.45168034     0.42564718
     0.30882353     0.50431192     0.42564718
     0.30882353     0.55694350     0.42564718
     0.30882353     0.60957508     0.42564718
     0.30882353     0.66220666     0.42564718
     0.30882353     0.71483824     0.42564718
     0.30882353     0.76746982     0.42564718
     0.30882353     0.82010140     0.42564718
     0.30882353     0.87273297     0.42564718
     0.30882353     0.92536455     0.42564718
     0.30882353     0.97799613     0.42564718
     0.33823529     0.03062771     0.42564718
     0.33823529     0.08325929     0.42564718
     0.33823529     0.13589087     0.42564718
     0.33823529     0.18852245     0.42564718
     0.33823529     0.24115403     0.42564718
     0.33823529     0.29378561     0.42564718
     0.33823529     0.34641719     0.42564718
     0.33823529     0.39904876     0.42564718
     0.33823529     0.45168034     0.42564718
     0.33823529     0.50431192     0.42564718
     0.33823529     0.55694350     0.42564718
     0.33823529     0.60957508     0.42564718
     0.33823529     0.66220666     0.42564718
     0.33823529     0.71483824     0.42564718
     0.33823529     0.76746982     0.42564718
     0.33823529     0.82010140     0.42564718
     0.33823529     0.87273297     0.42564718
     0.33823529     0.92536455     0.42564718
     0.33823529     0.97799613     0.42564718
     0.36764706     0.03062771     0.42564718
     0.36764706     0.08325929     0.42564718
     0.36764706     0.13589087     0.42564718
     0.36764706     0.18852245     0.42564718
     0.36764706     0.24115403     0.42564718
     0.36764706     0.29378561     0.42564718
     0.36764706     0.34641719     0.42564718
     0.36764706     0.39904876     0.42564718
     0.36764706     0.45168034     0.42564718
     0.36764706     0.50431192     0.42564718
     0.36764706     0.55694350     0.42564718
     0.36764706     0.60957508     0.42564718
     0.36764706     0.66220666     0.42564718
     0.36764706     0.71483824     0.42564718
     0.36764706     0.76746982     0.42564718
     0.36764706     0.82010140     0.42564718
     0.36764706     0.87273297     0.42564718
     0.36764706     0.92536455     0.42564718
     0.36764706     0.97799613     0.42564718
     0.39705882     0.03062771     0.42564718
     0.39705882     0.08325929     0.42564718
     0.39705882     0.13589087     0.42564718
     0.39705882     0.18852245     0.42564718
     0.39705882     0.24115403     0.42564718
     0.39705882     0.29378561     0.42564718
     0.39705882     0.34641719     0.42564718
     0.39705882     0.39904876     0.42564718
     0.39705882     0.45168034     0.42564718
     0.39705882     0.50431192     0.42564718
     0.39705882     0.55694350     0.42564718
     0.39705882     0.60957508     0.42564718
     0.39705882     0.66220666     0.42564718
     0.39705882     0.71483824     0.42564718
     0.39705882     0.76746982     0.42564718
     0.39705882     0.82010140     0.42564718
     0.39705882     0.87273297     0.42564718
     0.39705882     0.92536455     0.42564718
     0.39705882     0.97799613     0.42564718
     0.42647059     0.03062771     0.42564718
     0.42647059     0.08325929     0.42564718
     0.42647059     0.13589087     0.42564718
     0.42647059     0.18852245     0.42564718
     0.42647059     0.24115403     0.42564718
     0.42647059     0.29378561     0.42564718
     0.42647059     0.34641719     0.42564718
     0.42647059     0.39904876     0.42564718
     0.42647059     0.45168034     0.42564718
     0.42647059     0.50431192     0.42564718
     0.42647059     0.55694350     0.42564718
     0.42647059     0.60957508     0.42564718
     0.42647059     0.66220666     0.42564718
     0.42647059     0.71483824     0.42564718
     0.42647059     0.76746982     0.42564718
     0.42647059     0.82010140     0.42564718
     0.42647059     0.87273297     0.42564718
     0.42647059     0.92536455     0.42564718
     0.42647059     0.97799613     0.42564718
     0.45588235     0.03062771     0.42564718
     0.45588235     0.08325929     0.42564718
     0.45588235     0.13589087     0.42564718
     0.45588235     0.18852245     0.42564718
     0.45588235     0.24115403     0.42564718
     0.45588235     0.29378561     0.42564718
     0.45588235     0.34641719     0.42564718
     0.45588235     0.39904876     0.42564718
     0.45588235     0.45168034     0.42564718
     0.45588235     0.50431192     0.42564718
     0.45588235     0.55694350     0.42564718
     0.45588235     0.60957508     0.42564718
     0.45588235     0.66220666     0.42564718
     0.45588235     0.71483824     0.42564718
     0.45588235     0.76746982     0.42564718
     0.45588235     0.82010140     0.42564718
     0.45588235     0.87273297     0.42564718
     0.45588235     0.92536455     0.42564718
     0.45588235     0.97799613     0.42564718
     0.48529412     0.03062771     0.42564718
     0.48529412     0.08325929     0.42564718
     0.48529412     0.13589087     0.42564718
     0.48529412     0.18852245     0.42564718
     0.48529412     0.24115403     0.42564718
     0.48529412     0.29378561     0.42564718
     0.48529412     0.34641719     0.42564718
     0.48529412     0.39904876     0.42564718
     0.48529412     0.45168034     0.42564718
     0.48529412     0.50431192     0.42564718
     0.48529412     0.55694350     0.42564718
     0.48529412     0.60957508     0.42564718
     0.48529412     0.66220666     0.42564718
     0.48529412     0.71483824     0.42564718
     0.48529412     0.76746982     0.42564718
     0.48529412     0.82010140     0.42564718
     0.48529412     0.87273297     0.42564718
     0.48529412     0.92536455     0.42564718
     0.48529412     0.97799613     0.42564718
     0.51470588     0.03062771     0.42564718
     0.51470588     0.08325929     0.42564718
     0.51470588     0.13589087     0.42564718
     0.51470588     0.18852245     0.42564718
     0.51470588     0.24115403     0.42564718
     0.51470588     0.29378561     0.42564718
     0.51470588     0.34641719     0.42564718
     0.51470588     0.39904876     0.42564718
     0.51470588     0.45168034     0.42564718
     0.51470588     0.50431192     0.42564718
     0.51470588     0.55694350     0.42564718
     0.51470588     0.60957508     0.42564718
     0.51470588     0.66220666     0.42564718
     0.51470588     0.71483824     0.42564718
     0.51470588     0.76746982     0.42564718
     0.51470588     0.82010140     0.42564718
     0.51470588     0.87273297     0.42564718
     0.51470588     0.92536455     0.42564718
     0.51470588     0.97799613     0.42564718
     0.54411765     0.03062771     0.42564718
     0.54411765     0.08325929     0.42564718
     0.54411765     0.13589087     0.42564718
     0.54411765     0.18852245     0.42564718
     0.54411765     0.24115403     0.42564718
     0.54411765     0.29378561     0.42564718
     0.54411765     0.34641719     0.42564718
     0.54411765     0.39904876     0.42564718
     0.54411765     0.45168034     0.42564718
     0.54411765     0.50431192     0.42564718
     0.54411765     0.55694350     0.42564718
     0.54411765     0.60957508     0.42564718
     0.54411765     0.66220666     0.42564718
     0.54411765     0.71483824     0.42564718
     0.54411765     0.76746982     0.42564718
     0.54411765     0.82010140     0.42564718
     0.54411765     0.87273297     0.42564718
     0.54411765     0.92536455     0.42564718
     0.54411765     0.97799613     0.42564718
     0.57352941     0.03062771     0.42564718
     0.57352941     0.08325929     0.42564718
     0.57352941     0.13589087     0.42564718
     0.57352941     0.18852245     0.42564718
     0.57352941     0.24115403     0.42564718
     0.57352941     0.29378561     0.42564718
     0.57352941     0.34641719     0.42564718
     0.57352941     0.39904876     0.42564718
     0.57352941     0.45168034     0.42564718
     0.57352941     0.50431192     0.42564718
     0.57352941     0.55694350     0.42564718
     0.57352941     0.60957508     0.42564718
     0.57352941     0.66220666     0.42564718
     0.57352941     0.71483824     0.42564718
     0.57352941     0.76746982     0.42564718
     0.57352941     0.82010140     0.42564718
     0.57352941     0.87273297     0.42564718
     0.57352941     0.92536455     0.42564718
     0.57352941     0.97799613     0.42564718
     0.60294118     0.03062771     0.42564718
     0.60294118     0.08325929     0.42564718
     0.60294118     0.13589087     0.42564718
     0.60294118     0.18852245     0.42564718
     0.60294118     0.24115403     0.42564718
     0.60294118     0.29378561     0.42564718
     0.60294118     0.34641719     0.42564718
     0.60294118     0.39904876     0.42564718
     0.60294118     0.45168034     0.42564718
     0.60294118     0.50431192     0.42564718
     0.60294118     0.55694350     0.42564718
     0.60294118     0.60957508     0.42564718
     0.60294118     0.66220666     0.42564718
     0.60294118     0.71483824     0.42564718
     0.60294118     0.76746982     0.42564718
     0.60294118     0.82010140     0.42564718
     0.60294118     0.87273297     0.42564718
     0.60294118     0.92536455     0.42564718
     0.60294118     0.97799613     0.42564718
     0.63235294     0.03062771     0.42564718
     0.63235294     0.08325929     0.42564718
     0.63235294     0.13589087     0.42564718
     0.63235294     0.18852245     0.42564718
     0.63235294     0.24115403     0.42564718
     0.63235294     0.29378561     0.42564718
     0.63235294     0.34641719     0.42564718
     0.63235294     0.39904876     0.42564718
     0.63235294     0.45168034     0.42564718
     0.63235294     0.50431192     0.42564718
     0.63235294     0.55694350     0.42564718
     0.63235294     0.60957508     0.42564718
     0.63235294     0.66220666     0.42564718
     0.63235294     0.71483824     0.42564718
     0.63235294     0.76746982     0.42564718
     0.63235294     0.82010140     0.42564718
     0.63235294     0.87273297     0.42564718
     0.63235294     0.92536455     0.42564718
     0.63235294     0.97799613     0.42564718
     0.66176471     0.03062771     0.42564718
     0.66176471     0.08325929     0.42564718
     0.66176471     0.13589087     0.42564718
     0.66176471     0.18852245     0.42564718
     0.66176471     0.24115403     0.42564718
     0.66176471     0.29378561     0.42564718
     0.66176471     0.34641719     0.42564718
     0.66176471     0.39904876     0.42564718
     0.66176471     0.45168034     0.42564718
     0.66176471     0.50431192     0.42564718
     0.66176471     0.55694350     0.42564718
     0.66176471     0.60957508     0.42564718
     0.66176471     0.66220666     0.42564718
     0.66176471     0.71483824     0.42564718
     0.66176471     0.76746982     0.42564718
     0.66176471     0.82010140     0.42564718
     0.66176471     0.87273297     0.42564718
     0.66176471     0.92536455     0.42564718
     0.66176471     0.97799613     0.42564718
     0.69117647     0.03062771     0.42564718
     0.69117647     0.08325929     0.42564718
     0.69117647     0.13589087     0.42564718
     0.69117647     0.18852245     0.42564718
     0.69117647     0.24115403     0.42564718
     0.69117647     0.29378561     0.42564718
     0.69117647     0.34641719     0.42564718
     0.69117647     0.39904876     0.42564718
     0.69117647     0.45168034     0.42564718
     0.69117647     0.50431192     0.42564718
     0.69117647     0.55694350     0.42564718
     0.69117647     0.60957508     0.42564718
     0.69117647     0.66220666     0.42564718
     0.69117647     0.71483824     0.42564718
     0.69117647     0.76746982     0.42564718
     0.69117647     0.82010140     0.42564718
     0.69117647     0.87273297     0.42564718
     0.69117647     0.92536455     0.42564718
     0.69117647     0.97799613     0.42564718
     0.72058824     0.03062771     0.42564718
     0.72058824     0.08325929     0.42564718
     0.72058824     0.13589087     0.42564718
     0.72058824     0.18852245     0.42564718
     0.72058824     0.24115403     0.42564718
     0.72058824     0.29378561     0.42564718
     0.72058824     0.34641719     0.42564718
     0.72058824     0.39904876     0.42564718
     0.72058824     0.45168034     0.42564718
     0.72058824     0.50431192     0.42564718
     0.72058824     0.55694350     0.42564718
     0.72058824     0.60957508     0.42564718
     0.72058824     0.66220666     0.42564718
     0.72058824     0.71483824     0.42564718
     0.72058824     0.76746982     0.42564718
     0.72058824     0.82010140     0.42564718
     0.72058824     0.87273297     0.42564718
     0.72058824     0.92536455     0.42564718
     0.72058824     0.97799613     0.42564718
     0.75000000     0.03062771     0.42564718
     0.75000000     0.08325929     0.42564718
     0.75000000     0.13589087     0.42564718
     0.75000000     0.18852245     0.42564718
     0.75000000     0.24115403     0.42564718
     0.75000000     0.29378561     0.42564718
     0.75000000     0.34641719     0.42564718
     0.75000000     0.39904876     0.42564718
     0.75000000     0.45168034     0.42564718
     0.75000000     0.50431192     0.42564718
     0.75000000     0.55694350     0.42564718
     0.75000000     0.60957508     0.42564718
     0.75000000     0.66220666     0.42564718
     0.75000000     0.71483824     0.42564718
     0.75000000     0.76746982     0.42564718
     0.75000000     0.82010140     0.42564718
     0.75000000     0.87273297     0.42564718
     0.75000000     0.92536455     0.42564718
     0.75000000     0.97799613     0.42564718
     0.77941176     0.03062771     0.42564718
     0.77941176     0.08325929     0.42564718
     0.77941176     0.13589087     0.42564718
     0.77941176     0.18852245     0.42564718
     0.77941176     0.24115403     0.42564718
     0.77941176     0.29378561     0.42564718
     0.77941176     0.34641719     0.42564718
     0.77941176     0.39904876     0.42564718
     0.77941176     0.45168034     0.42564718
     0.77941176     0.50431192     0.42564718
     0.77941176     0.55694350     0.42564718
     0.77941176     0.60957508     0.42564718
     0.77941176     0.66220666     0.42564718
     0.77941176     0.71483824     0.42564718
     0.77941176     0.76746982     0.42564718
     0.77941176     0.82010140     0.42564718
     0.77941176     0.87273297     0.42564718
     0.77941176     0.92536455     0.42564718
     0.77941176     0.97799613     0.42564718
     0.80882353     0.03062771     0.42564718
     0.80882353     0.08325929     0.42564718
     0.80882353     0.13589087     0.42564718
     0.80882353     0.18852245     0.42564718
     0.80882353     0.24115403     0.42564718
     0.80882353     0.29378561     0.42564718
     0.80882353     0.34641719     0.42564718
     0.80882353     0.39904876     0.42564718
     0.80882353     0.45168034     0.42564718
     0.80882353     0.50431192     0.42564718
     0.80882353     0.55694350     0.42564718
     0.80882353     0.60957508     0.42564718
     0.80882353     0.66220666     0.42564718
     0.80882353     0.71483824     0.42564718
     0.80882353     0.76746982     0.42564718
     0.80882353     0.82010140     0.42564718
     0.80882353     0.87273297     0.42564718
     0.80882353     0.92536455     0.42564718
     0.80882353     0.97799613     0.42564718
     0.83823529     0.03062771     0.42564718
     0.83823529     0.08325929     0.42564718
     0.83823529     0.13589087     0.42564718
     0.83823529     0.18852245     0.42564718
     0.83823529     0.24115403     0.42564718
     0.83823529     0.29378561     0.42564718
     0.83823529     0.34641719     0.42564718
     0.83823529     0.39904876     0.42564718
     0.83823529     0.45168034     0.42564718
     0.83823529     0.50431192     0.42564718
     0.83823529     0.55694350     0.42564718
     0.83823529     0.60957508     0.42564718
     0.83823529     0.66220666     0.42564718
     0.83823529     0.71483824     0.42564718
     0.83823529     0.76746982     0.42564718
     0.83823529     0.82010140     0.42564718
     0.83823529     0.87273297     0.42564718
     0.83823529     0.92536455     0.42564718
     0.83823529     0.97799613     0.42564718
     0.86764706     0.03062771     0.42564718
     0.86764706     0.08325929     0.42564718
     0.86764706     0.13589087     0.42564718
     0.86764706     0.18852245     0.42564718
     0.86764706     0.24115403     0.42564718
     0.86764706     0.29378561     0.42564718
     0.86764706     0.34641719     0.42564718
     0.86764706     0.39904876     0.42564718
     0.86764706     0.45168034     0.42564718
     0.86764706     0.50431192     0.42564718
     0.86764706     0.55694350     0.42564718
     0.86764706     0.60957508     0.42564718
     0.86764706     0.66220666     0.42564718
     0.86764706     0.71483824     0.42564718
     0.86764706     0.76746982     0.42564718
     0.86764706     0.82010140     0.42564718
     0.86764706     0.87273297     0.42564718
     0.86764706     0.92536455     0.42564718
     0.86764706     0.97799613     0.42564718
     0.89705882     0.03062771     0.42564718
     0.89705882     0.08325929     0.42564718
     0.89705882     0.13589087     0.42564718
     0.89705882     0.18852245     0.42564718
     0.89705882     0.24115403     0.42564718
     0.89705882     0.29378561     0.42564718
     0.89705882     0.34641719     0.42564718
     0.89705882     0.39904876     0.42564718
     0.89705882     0.45168034     0.42564718
     0.89705882     0.50431192     0.42564718
     0.89705882     0.55694350     0.42564718
     0.89705882     0.60957508     0.42564718
     0.89705882     0.66220666     0.42564718
     0.89705882     0.71483824     0.42564718
     0.89705882     0.76746982     0.42564718
     0.89705882     0.82010140     0.42564718
     0.89705882     0.87273297     0.42564718
     0.89705882     0.92536455     0.42564718
     0.89705882     0.97799613     0.42564718
     0.92647059     0.03062771     0.42564718
     0.92647059     0.08325929     0.42564718
     0.92647059     0.13589087     0.42564718
     0.92647059     0.18852245     0.42564718
     0.92647059     0.24115403     0.42564718
     0.92647059     0.29378561     0.42564718
     0.92647059     0.34641719     0.42564718
     0.92647059     0.39904876     0.42564718
     0.92647059     0.45168034     0.42564718
     0.92647059     0.50431192     0.42564718
     0.92647059     0.55694350     0.42564718
     0.92647059     0.60957508     0.42564718
     0.92647059     0.66220666     0.42564718
     0.92647059     0.71483824     0.42564718
     0.92647059     0.76746982     0.42564718
     0.92647059     0.82010140     0.42564718
     0.92647059     0.87273297     0.42564718
     0.92647059     0.92536455     0.42564718
     0.92647059     0.97799613     0.42564718
     0.95588235     0.03062771     0.42564718
     0.95588235     0.08325929     0.42564718
     0.95588235     0.13589087     0.42564718
     0.95588235     0.18852245     0.42564718
     0.95588235     0.24115403     0.42564718
     0.95588235     0.29378561     0.42564718
     0.95588235     0.34641719     0.42564718
     0.95588235     0.39904876     0.42564718
     0.95588235     0.45168034     0.42564718
     0.95588235     0.50431192     0.42564718
     0.95588235     0.55694350     0.42564718
     0.95588235     0.60957508     0.42564718
     0.95588235     0.66220666     0.42564718
     0.95588235     0.71483824     0.42564718
     0.95588235     0.76746982     0.42564718
     0.95588235     0.82010140     0.42564718
     0.95588235     0.87273297     0.42564718
     0.95588235     0.92536455     0.42564718
     0.95588235     0.97799613     0.42564718
     0.98529412     0.03062771     0.42564718
     0.98529412     0.08325929     0.42564718
     0.98529412     0.13589087     0.42564718
     0.98529412     0.18852245     0.42564718
     0.98529412     0.24115403     0.42564718
     0.98529412     0.29378561     0.42564718
     0.98529412     0.34641719     0.42564718
     0.98529412     0.39904876     0.42564718
     0.98529412     0.45168034     0.42564718
     0.98529412     0.50431192     0.42564718
     0.98529412     0.55694350     0.42564718
     0.98529412     0.60957508     0.42564718
     0.98529412     0.66220666     0.42564718
     0.98529412     0.71483824     0.42564718
     0.98529412     0.76746982     0.42564718
     0.98529412     0.82010140     0.42564718
     0.98529412     0.87273297     0.42564718
     0.98529412     0.92536455     0.42564718
     0.98529412     0.97799613     0.42564718
     0.01470588     0.02197552     0.31941913