Generated by Twist2D
    1.0
     125.28598613       0.00000000       0.00000000
       0.00000000      88.60972658       0.00000000
       0.00000000       0.00000000      20.00000000
    P
    6084
Direct
     0.01315789     0.02909633     0.42564718
     0.01315789     0.07909633     0.42564718
     0.01315789     0.12909633     0.42564718
     0.01315789     0.17909633     0.42564718
     0.01315789     0.22909633     0.42564718
     0.01315789     0.27909633     0.42564718
     0.01315789     0.32909633     0.42564718
     0.01315789     0.37909633     0.42564718
     0.01315789     0.42909633     0.42564718
     0.01315789     0.47909633     0.42564718
     0.01315789     0.52909633     0.42564718
     0.01315789     0.57909633     0.42564718
     0.01315789     0.62909633     0.42564718
     0.01315789     0.67909633     0.42564718
     0.01315789     0.72909633     0.42564718
     0.01315789     0.77909633     0.42564718
     0.01315789     0.82909633     0.42564718
     0.01315789     0.87909633     0.42564718
     0.01315789     0.92909633     0.42564718
     0.01315789     0.97909633     0.42564718
     0.03947368     0.02909633     0.42564718
     0.03947368     0.07909633     0.42564718
     0.03947368     0.12909633     0.42564718
     0.03947368     0.17909633     0.42564718
     0.03947368     0.22909633     0.42564718
     0.03947368     0.27909633     0.42564718
     0.03947368     0.32909633     0.42564718
     0.03947368     0.37909633     0.42564718
     0.03947368     0.42909633     0.42564718
     0.03947368     0.47909633     0.42564718
     0.03947368     0.52909633     0.42564718
     0.03947368     0.57909633     0.42564718
     0.03947368     0.62909633     0.42564718
     0.03947368     0.67909633     0.42564718
     0.03947368     0.72909633     0.42564718
     0.03947368     0.77909633     0.42564718
     0.03947368     0.82909633     0.42564718
     0.03947368     0.87909633     0.42564718
     0.03947368     0.92909633     0.42564718
     0.03947368     0.97909633     0.42564718
     0.06578947     0.02909633     0.42564718
     0.06578947     0.07909633     0.42564718
     0.06578947     0.12909633     0.42564718
     0.06578947     0.17909633     0.42564718
     0.06578947     0.22909633     0.42564718
     0.06578947     0.27909633     0.42564718
     0.06578947     0.32909633     0.42564718
     0.06578947     0.37909633     0.42564718
     0.06578947     0.42909633     0.42564718
     0.06578947     0.47909633     0.42564718
     0.06578947     0.52909633     0.42564718
     0.06578947     0.57909633     0.42564718
     0.06578947     0.62909633     0.42564718
     0.06578947     0.67909633     0.42564718
     0.06578947     0.72909633     0.42564718
     0.06578947     0.77909633     0.42564718
     0.06578947     0.82909633     0.42564718
     0.06578947     0.87909633     0.42564718
     0.06578947     0.92909633     0.42564718
     0.06578947     0.97909633     0.42564718
     0.09210526     0.02909633     0.42564718
     0.09210526     0.07909633     0.42564718
     0.09210526     0.12909633     0.42564718
     0.09210526     0.17909633     0.42564718
     0.09210526     0.22909633     0.42564718
     0.09210526     0.27909633     0.42564718
     0.09210526     0.32909633     0.42564718
     0.09210526     0.37909633     0.42564718
     0.09210526     0.42909633     0.42564718
     0.09210526     0.47909633     0.42564718
     0.09210526     0.52909633     0.42564718
     0.09210526     0.57909633     0.42564718
     0.09210526     0.62909633     0.42564718
     0.09210526     0.67909633     0.42564718
     0.09210526     0.72909633     0.42564718
     0.09210526     0.77909633     0.42564718
     0.09210526     0.82909633     0.42564718
     0.09210526     0.87909633     0.42564718
     0.09210526     0.92909633     0.42564718
     0.09210526     0.97909633     0.42564718
     0.11842105     0.02909633     0.42564718
     0.11842105     0.07909633     0.42564718
     0.11842105     0.12909633     0.42564718
     0.11842105     0.17909633     0.42564718
     0.11842105     0.22909633     0.42564718
     0.11842105     0.27909633     0.42564718
     0.11842105     0.32909633     0.42564718
     0.11842105     0.37909633     0.42564718
     0.11842105     0.42909633     0.42564718
     0.11842105     0.47909633     0.42564718
     0.11842105     0.52909633     0.42564718
     0.11842105     0.57909633     0.42564718
     0.11842105     0.62909633     0.42564718
     0.11842105     0.67909633     0.42564718
     0.11842105     0.72909633     0.42564718
     0.11842105     0.77909633     0.42564718
     0.11842105     0.82909633     0.42564718
     0.11842105     0.87909633     0.42564718
     0.11842105     0.92909633     0.42564718
     0.11842105     0.97909633     0.42564718
     0.14473684     0.02909633     0.42564718
     0.14473684     0.07909633     0.42564718
     0.14473684     0.12909633     0.42564718
     0.14473684     0.17909633     0.42564718
     0.14473684     0.22909633     0.42564718
     0.14473684     0.27909633     0.42564718
     0.14473684     0.32909633     0.42564718
     0.14473684     0.37909633     0.42564718
     0.14473684     0.42909633     0.42564718
     0.14473684     0.47909633     0.42564718
     0.14473684     0.52909633     0.42564718
     0.14473684     0.57909633     0.42564718
     0.14473684     0.62909633     0.42564718
     0.14473684     0.67909633     0.42564718
     0.14473684     0.72909633     0.42564718
     0.14473684     0.77909633     0.42564718
     0.14473684     0.82909633     0.42564718
     0.14473684     0.87909633     0.42564718
     0.14473684     0.92909633     0.42564718
     0.14473684     0.97909633     0.42564718
     0.17105263     0.02909633     0.42564718
     0.17105263     0.07909633     0.42564718
     0.17105263     0.12909633     0.42564718
     0.17105263     0.17909633     0.42564718
     0.17105263     0.22909633     0.42564718
     0.17105263     0.27909633     0.42564718
     0.17105263     0.32909633     0.42564718
     0.17105263     0.37909633     0.42564718
     0.17105263     0.42909633     0.42564718
     0.17105263     0.47909633     0.42564718
     0.17105263     0.52909633     0.42564718
     0.17105263     0.57909633     0.42564718
     0.17105263     0.62909633     0.42564718
     0.17105263     0.67909633     0.42564718
     0.17105263     0.72909633     0.42564718
     0.17105263     0.77909633     0.42564718
     0.17105263     0.82909633     0.42564718
     0.17105263     0.87909633     0.42564718
     0.17105263     0.92909633     0.42564718
     0.17105263     0.97909633     0.42564718
     0.19736842     0.02909633     0.42564718
     0.19736842     0.07909633     0.42564718
     0.19736842     0.12909633     0.42564718
     0.19736842     0.17909633     0.42564718
     0.19736842     0.22909633     0.42564718
     0.19736842     0.27909633     0.42564718
     0.19736842     0.32909633     0.42564718
     0.19736842     0.37909633     0.42564718
     0.19736842     0.42909633     0.42564718
     0.19736842     0.47909633     0.42564718
     0.19736842     0.52909633     0.42564718
     0.19736842     0.57909633     0.42564718
     0.19736842     0.62909633     0.42564718
     0.19736842     0.67909633     0.42564718
     0.19736842     0.72909633     0.42564718
     0.19736842     0.77909633     0.42564718
     0.19736842     0.82909633     0.42564718
     0.19736842     0.87909633     0.42564718
     0.19736842     0.92909633     0.42564718
     0.19736842     0.97909633     0.42564718
     0.22368421     0.02909633     0.42564718
     0.22368421     0.07909633     0.42564718
     0.22368421     0.12909633     0.42564718
     0.22368421     0.17909633     0.42564718
     0.22368421     0.22909633     0.42564718
     0.22368421     0.27909633     0.42564718
     0.22368421     0.32909633     0.42564718
     0.22368421     0.37909633     0.42564718
     0.22368421     0.42909633     0.42564718
     0.22368421     0.47909633     0.42564718
     0.22368421     0.52909633     0.42564718
     0.22368421     0.57909633     0.42564718
     0.22368421     0.62909633     0.42564718
     0.22368421     0.67909633     0.42564718
     0.22368421     0.72909633     0.42564718
     0.22368421     0.77909633     0.42564718
     0.22368421     0.82909633     0.42564718
     0.22368421     0.87909633     0.42564718
     0.22368421     0.92909633     0.42564718
     0.22368421     0.97909633     0.42564718
     0.25000000     0.02909633     0.42564718
     0.25000000     0.07909633     0.42564718
     0.25000000     0.12909633     0.42564718
     0.25000000     0.17909633     0.42564718
     0.25000000     0.22909633     0.42564718
     0.25000000     0.27909633     0.42564718
     0.25000000     0.32909633     0.42564718
     0.25000000     0.37909633     0.42564718
     0.25000000     0.42909633     0.42564718
     0.25000000     0.47909633     0.42564718
     0.25000000     0.52909633     0.42564718
     0.25000000     0.57909633     0.42564718
     0.25000000     0.62909633     0.42564718
     0.25000000     0.67909633     0.42564718
     0.25000000     0.72909633     0.42564718
     0.25000000     0.77909633     0.42564718
     0.25000000     0.82909633     0.42564718
     0.25000000     0.87909633     0.42564718
     0.25000000     0.92909633     0.42564718
     0.25000000     0.97909633     0.42564718
     0.27631579     0.02909633     0.42564718
     0.27631579     0.07909633     0.42564718
     0.27631579     0.12909633     0.42564718
     0.27631579     0.17909633     0.42564718
     0.27631579     0.22909633     0.42564718
     0.27631579     0.27909633     0.42564718
     0.27631579     0.32909633     0.42564718
     0.27631579     0.37909633     0.42564718
     0.27631579     0.42909633     0.42564718
     0.27631579     0.47909633     0.42564718
     0.27631579     0.52909633     0.42564718
     0.27631579     0.57909633     0.42564718
     0.27631579     0.62909633     0.42564718
     0.27631579     0.67909633     0.42564718
     0.27631579     0.72909633     0.42564718
     0.27631579     0.77909633     0.42564718
     0.27631579     0.82909633     0.42564718
     0.27631579     0.87909633     0.42564718
     0.27631579     0.92909633     0.42564718
     0.27631579     0.97909633     0.42564718
     0.30263158     0.02909633     0.42564718
     0.30263158     0.07909633     0.42564718
     0.30263158     0.12909633     0.42564718
     0.30263158     0.17909633     0.42564718
     0.30263158     0.22909633     0.42564718
     0.30263158     0.27909633     0.42564718
     0.30263158     0.32909633     0.42564718
     0.30263158     0.37909633     0.42564718
     0.30263158     0.42909633     0.42564718
     0.30263158     0.47909633     0.42564718
     0.30263158     0.52909633     0.42564718
     0.30263158     0.57909633     0.42564718
     0.30263158     0.62909633     0.42564718
     0.30263158     0.67909633     0.42564718
     0.30263158     0.72909633     0.42564718
     0.30263158     0.77909633     0.42564718
     0.30263158     0.82909633     0.42564718
     0.30263158     0.87909633     0.42564718
     0.30263158     0.92909633     0.42564718
     0.30263158     0.97909633     0.42564718
     0.32894737     0.02909633     0.42564718
     0.32894737     0.07909633     0.42564718
     0.32894737     0.12909633     0.42564718
     0.32894737     0.17909633     0.42564718
     0.32894737     0.22909633     0.42564718
     0.32894737     0.27909633     0.42564718
     0.32894737     0.32909633     0.42564718
     0.32894737     0.37909633     0.42564718
     0.32894737     0.42909633     0.42564718
     0.32894737     0.47909633     0.42564718
     0.32894737     0.52909633     0.42564718
     0.32894737     0.57909633     0.42564718
     0.32894737     0.62909633     0.42564718
     0.32894737     0.67909633     0.42564718
     0.32894737     0.72909633     0.42564718
     0.32894737     0.77909633     0.42564718
     0.32894737     0.82909633     0.42564718
     0.32894737     0.87909633     0.42564718
     0.32894737     0.92909633     0.42564718
     0.32894737     0.97909633     0.42564718
     0.35526316     0.02909633     0.42564718
     0.35526316     0.07909633     0.42564718
     0.35526316     0.12909633     0.42564718
     0.35526316     0.17909633     0.42564718
     0.35526316     0.22909633     0.42564718
     0.35526316     0.27909633     0.42564718
     0.35526316     0.32909633     0.42564718
     0.35526316     0.37909633     0.42564718
     0.35526316     0.42909633     0.42564718
     0.35526316     0.47909633     0.42564718
     0.35526316     0.52909633     0.42564718
     0.35526316     0.57909633     0.42564718
     0.35526316     0.62909633     0.42564718
     0.35526316     0.67909633     0.42564718
     0.35526316     0.72909633     0.42564718
     0.35526316     0.77909633     0.42564718
     0.35526316     0.82909633     0.42564718
     0.35526316     0.87909633     0.42564718
     0.35526316     0.92909633     0.42564718
     0.35526316     0.97909633     0.42564718
     0.38157895     0.02909633     0.42564718
     0.38157895     0.07909633     0.42564718
     0.38157895     0.12909633     0.42564718
     0.38157895     0.17909633     0.42564718
     0.38157895     0.22909633     0.42564718
     0.38157895     0.27909633     0.42564718
     0.38157895     0.32909633     0.42564718
     0.38157895     0.37909633     0.42564718
     0.38157895     0.42909633     0.42564718
     0.38157895     0.47909633     0.42564718
     0.38157895     0.52909633     0.42564718
     0.38157895     0.57909633     0.42564718
     0.38157895     0.62909633     0.42564718
     0.38157895     0.67909633     0.42564718
     0.38157895     0.72909633     0.42564718
     0.38157895     0.77909633     0.42564718
     0.38157895     0.82909633     0.42564718
     0.38157895     0.87909633     0.42564718
     0.38157895     0.92909633     0.42564718
     0.38157895     0.97909633     0.42564718
     0.40789474     0.02909633     0.42564718
     0.40789474     0.07909633     0.42564718
     0.40789474     0.12909633     0.42564718
     0.40789474     0.17909633     0.42564718
     0.40789474     0.22909633     0.42564718
     0.40789474     0.27909633     0.42564718
     0.40789474     0.32909633     0.42564718
     0.40789474     0.37909633     0.42564718
     0.40789474     0.42909633     0.42564718
     0.40789474     0.47909633     0.42564718
     0.40789474     0.52909633     0.42564718
     0.40789474     0.57909633     0.42564718
     0.40789474     0.62909633     0.42564718
     0.40789474     0.67909633     0.42564718
     0.40789474     0.72909633     0.42564718
     0.40789474     0.77909633     0.42564718
     0.40789474     0.82909633     0.42564718
     0.40789474     0.87909633     0.42564718
     0.40789474     0.92909633     0.42564718
     0.40789474     0.97909633     0.42564718
     0.43421053     0.02909633     0.42564718
     0.43421053     0.07909633     0.42564718
     0.43421053     0.12909633     0.42564718
     0.43421053     0.17909633     0.42564718
     0.43421053     0.22909633     0.42564718
     0.43421053     0.27909633     0.42564718
     0.43421053     0.32909633     0.42564718
     0.43421053     0.37909633     0.42564718
     0.43421053     0.42909633     0.42564718
     0.43421053     0.47909633     0.42564718
     0.43421053     0.52909633     0.42564718
     0.43421053     0.57909633     0.42564718
     0.43421053     0.62909633     0.42564718
     0.43421053     0.67909633     0.42564718
     0.43421053     0.72909633     0.42564718
     0.43421053     0.77909633     0.42564718
     0.43421053     0.82909633     0.42564718
     0.43421053     0.87909633     0.42564718
     0.43421053     0.92909633     0.42564718
     0.43421053     0.97909633     0.42564718
     0.46052632     0.02909633     0.42564718
     0.46052632     0.07909633     0.42564718
     0.46052632     0.12909633     0.42564718
     0.46052632     0.17909633     0.42564718
     0.46052632     0.22909633     0.42564718
     0.46052632     0.27909633     0.42564718
     0.46052632     0.32909633     0.42564718
     0.46052632     0.37909633     0.42564718
     0.46052632     0.42909633     0.42564718
     0.46052632     0.47909633     0.42564718
     0.46052632     0.52909633     0.42564718
     0.46052632     0.57909633     0.42564718
     0.46052632     0.62909633     0.42564718
     0.46052632     0.67909633     0.42564718
     0.46052632     0.72909633     0.42564718
     0.46052632     0.77909633     0.42564718
     0.46052632     0.82909633     0.42564718
     0.46052632     0.87909633     0.42564718
     0.46052632     0.92909633     0.42564718
     0.46052632     0.97909633     0.42564718
     0.48684211     0.02909633     0.42564718
     0.48684211     0.07909633     0.42564718
     0.48684211     0.12909633     0.42564718
     0.48684211     0.17909633     0.42564718
     0.48684211     0.22909633     0.42564718
     0.48684211     0.27909633     0.42564718
     0.48684211     0.32909633     0.42564718
     0.48684211     0.37909633     0.42564718
     0.48684211     0.42909633     0.42564718
     0.48684211     0.47909633     0.42564718
     0.48684211     0.52909633     0.42564718
     0.48684211     0.57909633     0.42564718
     0.48684211     0.62909633     0.42564718
     0.48684211     0.67909633     0.42564718
     0.48684211     0.72909633     0.42564718
     0.48684211     0.77909633     0.42564718
     0.48684211     0.82909633     0.42564718
     0.48684211     0.87909633     0.42564718
     0.48684211     0.92909633     0.42564718
     0.48684211     0.97909633     0.42564718
     0.51315789     0.02909633     0.42564718
     0.51315789     0.07909633     0.42564718
     0.51315789     0.12909633     0.42564718
     0.51315789     0.17909633     0.42564718
     0.51315789     0.22909633     0.42564718
     0.51315789     0.27909633     0.42564718
     0.51315789     0.32909633     0.42564718
     0.51315789     0.37909633     0.42564718
     0.51315789     0.42909633     0.42564718
     0.51315789     0.47909633     0.42564718
     0.51315789     0.52909633     0.42564718
     0.51315789     0.57909633     0.42564718
     0.51315789     0.62909633     0.42564718
     0.51315789     0.67909633     0.42564718
     0.51315789     0.72909633     0.42564718
     0.51315789     0.77909633     0.42564718
     0.51315789     0.82909633     0.42564718
     0.51315789     0.87909633     0.42564718
     0.51315789     0.92909633     0.42564718
     0.51315789     0.97909633     0.42564718
     0.53947368     0.02909633     0.42564718
     0.53947368     0.07909633     0.42564718
     0.53947368     0.12909633     0.42564718
     0.53947368     0.17909633     0.42564718
     0.53947368     0.22909633     0.42564718
     0.53947368     0.27909633     0.42564718
     0.53947368     0.32909633     0.42564718
     0.53947368     0.37909633     0.42564718
     0.53947368     0.42909633     0.42564718
     0.53947368     0.47909633     0.42564718
     0.53947368     0.52909633     0.42564718
     0.53947368     0.57909633     0.42564718
     0.53947368     0.62909633     0.42564718
     0.53947368     0.67909633     0.42564718
     0.53947368     0.72909633     0.42564718
     0.53947368     0.77909633     0.42564718
     0.53947368     0.82909633     0.42564718
     0.53947368     0.87909633     0.42564718
     0.53947368     0.92909633     0.42564718
     0.53947368     0.97909633     0.42564718
     0.56578947     0.02909633     0.42564718
     0.56578947     0.07909633     0.42564718
     0.56578947     0.12909633     0.42564718
     0.56578947     0.17909633     0.42564718
     0.56578947     0.22909633     0.42564718
     0.56578947     0.27909633     0.42564718
     0.56578947     0.32909633     0.42564718
     0.56578947     0.37909633     0.42564718
     0.56578947     0.42909633     0.42564718
     0.56578947     0.47909633     0.42564718
     0.56578947     0.52909633     0.42564718
     0.56578947     0.57909633     0.42564718
     0.56578947     0.62909633     0.42564718
     0.56578947     0.67909633     0.42564718
     0.56578947     0.72909633     0.42564718
     0.56578947     0.77909633     0.42564718
     0.56578947     0.82909633     0.42564718
     0.56578947     0.87909633     0.42564718
     0.56578947     0.92909633     0.42564718
     0.56578947     0.97909633     0.42564718
     0.59210526     0.02909633     0.42564718
     0.59210526     0.07909633     0.42564718
     0.59210526     0.12909633     0.42564718
     0.59210526     0.17909633     0.42564718
     0.59210526     0.22909633     0.42564718
     0.59210526     0.27909633     0.42564718
     0.59210526     0.32909633     0.42564718
     0.59210526     0.37909633     0.42564718
     0.59210526     0.42909633     0.42564718
     0.59210526     0.47909633     0.42564718
     0.59210526     0.52909633     0.42564718
     0.59210526     0.57909633     0.42564718
     0.59210526     0.62909633     0.42564718
     0.59210526     0.67909633     0.42564718
     0.59210526     0.72909633     0.42564718
     0.59210526     0.77909633     0.42564718
     0.59210526     0.82909633     0.42564718
     0.59210526     0.87909633     0.42564718
     0.59210526     0.92909633     0.42564718
     0.59210526     0.97909633     0.42564718
     0.61842105     0.02909633     0.42564718
     0.61842105     0.07909633     0.42564718
     0.61842105     0.12909633     0.42564718
     0.61842105     0.17909633     0.42564718
     0.61842105     0.22909633     0.42564718
     0.61842105     0.27909633     0.42564718
     0.61842105     0.32909633     0.42564718
     0.61842105     0.37909633     0.42564718
     0.61842105     0.42909633     0.42564718
     0.61842105     0.47909633     0.42564718
     0.61842105     0.52909633     0.42564718
     0.61842105     0.57909633     0.42564718
     0.61842105     0.62909633     0.42564718
     0.61842105     0.67909633     0.42564718
     0.61842105     0.72909633     0.42564718
     0.61842105     0.77909633     0.42564718
     0.61842105     0.82909633     0.42564718
     0.61842105     0.87909633     0.42564718
     0.61842105     0.92909633     0.42564718
     0.61842105     0.97909633     0.42564718
     0.64473684     0.02909633     0.42564718
     0.64473684     0.07909633     0.42564718
     0.64473684     0.12909633     0.42564718
     0.64473684     0.17909633     0.42564718
     0.64473684     0.22909633     0.42564718
     0.64473684     0.27909633     0.42564718
     0.64473684     0.32909633     0.42564718
     0.64473684     0.37909633     0.42564718
     0.64473684     0.42909633     0.42564718
     0.64473684     0.47909633     0.42564718
     0.64473684     0.52909633     0.42564718
     0.64473684     0.57909633     0.42564718
     0.64473684     0.62909633     0.42564718
     0.64473684     0.67909633     0.42564718
     0.64473684     0.72909633     0.42564718
     0.64473684     0.77909633     0.42564718
     0.64473684     0.82909633     0.42564718
     0.64473684     0.87909633     0.42564718
     0.64473684     0.92909633     0.42564718
     0.64473684     0.97909633     0.42564718
     0.67105263     0.02909633     0.42564718
     0.67105263     0.07909633     0.42564718
     0.67105263     0.12909633     0.42564718
     0.67105263     0.17909633     0.42564718
     0.67105263     0.22909633     0.42564718
     0.67105263     0.27909633     0.42564718
     0.67105263     0.32909633     0.42564718
     0.67105263     0.37909633     0.42564718
     0.67105263     0.42909633     0.42564718
     0.67105263     0.47909633     0.42564718
     0.67105263     0.52909633     0.42564718
     0.67105263     0.57909633     0.42564718
     0.67105263     0.62909633     0.42564718
     0.67105263     0.67909633     0.42564718
     0.67105263     0.72909633     0.42564718
     0.67105263     0.77909633     0.42564718
     0.67105263     0.82909633     0.42564718
     0.67105263     0.87909633     0.42564718
     0.67105263     0.92909633     0.42564718
     0.67105263     0.97909633     0.42564718
     0.69736842     0.02909633     0.42564718
     0.69736842     0.07909633     0.42564718
     0.69736842     0.12909633     0.42564718
     0.69736842     0.17909633     0.42564718
     0.69736842     0.22909633     0.42564718
     0.69736842     0.27909633     0.42564718
     0.69736842     0.32909633     0.42564718
     0.69736842     0.37909633     0.42564718
     0.69736842     0.42909633     0.42564718
     0.69736842     0.47909633     0.42564718
     0.69736842     0.52909633     0.42564718
     0.69736842     0.57909633     0.42564718
     0.69736842     0.62909633     0.42564718
     0.69736842     0.67909633     0.42564718
     0.69736842     0.72909633     0.42564718
     0.69736842     0.77909633     0.42564718
     0.69736842     0.82909633     0.42564718
     0.69736842     0.87909633     0.42564718
     0.69736842     0.92909633     0.42564718
     0.69736842     0.97909633     0.42564718
     0.72368421     0.02909633     0.42564718
     0.72368421     0.07909633     0.42564718
     0.72368421     0.12909633     0.42564718
     0.72368421     0.17909633     0.42564718
     0.72368421     0.22909633     0.42564718
     0.72368421     0.27909633     0.42564718
     0.72368421     0.32909633     0.42564718
     0.72368421     0.37909633     0.42564718
     0.72368421     0.42909633     0.42564718
     0.72368421     0.47909633     0.42564718
     0.72368421     0.52909633     0.42564718
     0.72368421     0.57909633     0.42564718
     0.72368421     0.62909633     0.42564718
     0.72368421     0.67909633     0.42564718
     0.72368421     0.72909633     0.42564718
     0.72368421     0.77909633     0.42564718
     0.72368421     0.82909633     0.42564718
     0.72368421     0.87909633     0.42564718
     0.72368421     0.92909633     0.42564718
     0.72368421     0.97909633     0.42564718
     0.75000000     0.02909633     0.42564718
     0.75000000     0.07909633     0.42564718
     0.75000000     0.12909633     0.42564718
     0.75000000     0.17909633     0.42564718
     0.75000000     0.22909633     0.42564718
     0.75000000     0.27909633     0.42564718
     0.75000000     0.32909633     0.42564718
     0.75000000     0.37909633     0.42564718
     0.75000000     0.42909633     0.42564718
     0.75000000     0.47909633     0.42564718
     0.75000000     0.52909633     0.42564718
     0.75000000     0.57909633     0.42564718
     0.75000000     0.62909633     0.42564718
     0.75000000     0.67909633     0.42564718
     0.75000000     0.72909633     0.42564718
     0.75000000     0.77909633     0.42564718
     0.75000000     0.82909633     0.42564718
     0.75000000     0.87909633     0.42564718
     0.75000000     0.92909633     0.42564718
     0.75000000     0.97909633     0.42564718
     0.77631579     0.02909633     0.42564718
     0.77631579     0.07909633     0.42564718
     0.77631579     0.12909633     0.42564718
     0.77631579     0.17909633     0.42564718
     0.77631579     0.22909633     0.42564718
     0.77631579     0.27909633     0.42564718
     0.77631579     0.32909633     0.42564718
     0.77631579     0.37909633     0.42564718
     0.77631579     0.42909633     0.42564718
     0.77631579     0.47909633     0.42564718
     0.77631579     0.52909633     0.42564718
     0.77631579     0.57909633     0.42564718
     0.77631579     0.62909633     0.42564718
     0.77631579     0.67909633     0.42564718
     0.77631579     0.72909633     0.42564718
     0.77631579     0.77909633     0.42564718
     0.77631579     0.82909633     0.42564718
     0.77631579     0.87909633     0.42564718
     0.77631579     0.92909633     0.42564718
     0.77631579     0.97909633     0.42564718
     0.80263158     0.02909633     0.42564718
     0.80263158     0.07909633     0.42564718
     0.80263158     0.12909633     0.42564718
     0.80263158     0.17909633     0.42564718
     0.80263158     0.22909633     0.42564718
     0.80263158     0.27909633     0.42564718
     0.80263158     0.32909633     0.42564718
     0.80263158     0.37909633     0.42564718
     0.80263158     0.42909633     0.42564718
     0.80263158     0.47909633     0.42564718
     0.80263158     0.52909633     0.42564718
     0.80263158     0.57909633     0.42564718
     0.80263158     0.62909633     0.42564718
     0.80263158     0.67909633     0.42564718
     0.80263158     0.72909633     0.42564718
     0.80263158     0.77909633     0.42564718
     0.80263158     0.82909633     0.42564718
     0.80263158     0.87909633     0.42564718
     0.80263158     0.92909633     0.42564718
     0.80263158     0.97909633     0.42564718
     0.82894737     0.02909633     0.42564718
     0.82894737     0.07909633     0.42564718
     0.82894737     0.12909633     0.42564718
     0.82894737     0.17909633     0.42564718
     0.82894737     0.22909633     0.42564718
     0.82894737     0.27909633     0.42564718
     0.82894737     0.32909633     0.42564718
     0.82894737     0.37909633     0.42564718
     0.82894737     0.42909633     0.42564718
     0.82894737     0.47909633     0.42564718
     0.82894737     0.52909633     0.42564718
     0.82894737     0.57909633     0.42564718
     0.82894737     0.62909633     0.42564718
     0.82894737     0.67909633     0.42564718
     0.82894737     0.72909633     0.42564718
     0.82894737     0.77909633     0.42564718
     0.82894737     0.82909633     0.42564718
     0.82894737     0.87909633     0.42564718
     0.82894737     0.92909633     0.42564718
     0.82894737     0.97909633     0.42564718
     0.85526316     0.02909633     0.42564718
     0.85526316     0.07909633     0.42564718
     0.85526316     0.12909633     0.42564718
     0.85526316     0.17909633     0.42564718
     0.85526316     0.22909633     0.42564718
     0.85526316     0.27909633     0.42564718
     0.85526316     0.32909633     0.42564718