Generated by Twist2D
    1.0
     161.55298211       0.00000000       0.00000000
       0.00000000     115.19264455       0.00000000
       0.00000000       0.00000000      20.00000000
    P
    10196
Direct
     0.01020408     0.02238179     0.42564718
     0.01020408     0.06084333     0.42564718
     0.01020408     0.09930487     0.42564718
     0.01020408     0.13776640     0.42564718
     0.01020408     0.17622794     0.42564718
     0.01020408     0.21468948     0.42564718
     0.01020408     0.25315102     0.42564718
     0.01020408     0.29161256     0.42564718
     0.01020408     0.33007410     0.42564718
     0.01020408     0.36853564     0.42564718
     0.01020408     0.40699717     0.42564718
     0.01020408     0.44545871     0.42564718
     0.01020408     0.48392025     0.42564718
     0.01020408     0.52238179     0.42564718
     0.01020408     0.56084333     0.42564718
     0.01020408     0.59930487     0.42564718
     0.01020408     0.63776640     0.42564718
     0.01020408     0.67622794     0.42564718
     0.01020408     0.71468948     0.42564718
     0.01020408     0.75315102     0.42564718
     0.01020408     0.79161256     0.42564718
     0.01020408     0.83007410     0.42564718
     0.01020408     0.86853564     0.42564718
     0.01020408     0.90699717     0.42564718
     0.01020408     0.94545871     0.42564718
     0.01020408     0.98392025     0.42564718
     0.03061224     0.02238179     0.42564718
     0.03061224     0.06084333     0.42564718
     0.03061224     0.09930487     0.42564718
     0.03061224     0.13776640     0.42564718
     0.03061224     0.17622794     0.42564718
     0.03061224     0.21468948     0.42564718
     0.03061224     0.25315102     0.42564718
     0.03061224     0.29161256     0.42564718
     0.03061224     0.33007410     0.42564718
     0.03061224     0.36853564     0.42564718
     0.03061224     0.40699717     0.42564718
     0.03061224     0.44545871     0.42564718
     0.03061224     0.48392025     0.42564718
     0.03061224     0.52238179     0.42564718
     0.03061224     0.56084333     0.42564718
     0.03061224     0.59930487     0.42564718
     0.03061224     0.63776640     0.42564718
     0.03061224     0.67622794     0.42564718
     0.03061224     0.71468948     0.42564718
     0.03061224     0.75315102     0.42564718
     0.03061224     0.79161256     0.42564718
     0.03061224     0.83007410     0.42564718
     0.03061224     0.86853564     0.42564718
     0.03061224     0.90699717     0.42564718
     0.03061224     0.94545871     0.42564718
     0.03061224     0.98392025     0.42564718
     0.05102041     0.02238179     0.42564718
     0.05102041     0.06084333     0.42564718
     0.05102041     0.09930487     0.42564718
     0.05102041     0.13776640     0.42564718
     0.05102041     0.17622794     0.42564718
     0.05102041     0.21468948     0.42564718
     0.05102041     0.25315102     0.42564718
     0.05102041     0.29161256     0.42564718
     0.05102041     0.33007410     0.42564718
     0.05102041     0.36853564     0.42564718
     0.05102041     0.40699717     0.42564718
     0.05102041     0.44545871     0.42564718
     0.05102041     0.48392025     0.42564718
     0.05102041     0.52238179     0.42564718
     0.05102041     0.56084333     0.42564718
     0.05102041     0.59930487     0.42564718
     0.05102041     0.63776640     0.42564718
     0.05102041     0.67622794     0.42564718
     0.05102041     0.71468948     0.42564718
     0.05102041     0.75315102     0.42564718
     0.05102041     0.79161256     0.42564718
     0.05102041     0.83007410     0.42564718
     0.05102041     0.86853564     0.42564718
     0.05102041     0.90699717     0.42564718
     0.05102041     0.94545871     0.42564718
     0.05102041     0.98392025     0.42564718
     0.07142857     0.02238179     0.42564718
     0.07142857     0.06084333     0.42564718
     0.07142857     0.09930487     0.42564718
     0.07142857     0.13776640     0.42564718
     0.07142857     0.17622794     0.42564718
     0.07142857     0.21468948     0.42564718
     0.07142857     0.25315102     0.42564718
     0.07142857     0.29161256     0.42564718
     0.07142857     0.33007410     0.42564718
     0.07142857     0.36853564     0.42564718
     0.07142857     0.40699717     0.42564718
     0.07142857     0.44545871     0.42564718
     0.07142857     0.48392025     0.42564718
     0.07142857     0.52238179     0.42564718
     0.07142857     0.56084333     0.42564718
     0.07142857     0.59930487     0.42564718
     0.07142857     0.63776640     0.42564718
     0.07142857     0.67622794     0.42564718
     0.07142857     0.71468948     0.42564718
     0.07142857     0.75315102     0.42564718
     0.07142857     0.79161256     0.42564718
     0.07142857     0.83007410     0.42564718
     0.07142857     0.86853564     0.42564718
     0.07142857     0.90699717     0.42564718
     0.07142857     0.94545871     0.42564718
     0.07142857     0.98392025     0.42564718
     0.09183673     0.02238179     0.42564718
     0.09183673     0.06084333     0.42564718
     0.09183673     0.09930487     0.42564718
     0.09183673     0.13776640     0.42564718
     0.09183673     0.17622794     0.42564718
     0.09183673     0.21468948     0.42564718
     0.09183673     0.25315102     0.42564718
     0.09183673     0.29161256     0.42564718
     0.09183673     0.33007410     0.42564718
     0.09183673     0.36853564     0.42564718
     0.09183673     0.40699717     0.42564718
     0.09183673     0.44545871     0.42564718
     0.09183673     0.48392025     0.42564718
     0.09183673     0.52238179     0.42564718
     0.09183673     0.56084333     0.42564718
     0.09183673     0.59930487     0.42564718
     0.09183673     0.63776640     0.42564718
     0.09183673     0.67622794     0.42564718
     0.09183673     0.71468948     0.42564718
     0.09183673     0.75315102     0.42564718
     0.09183673     0.79161256     0.42564718
     0.09183673     0.83007410     0.42564718
     0.09183673     0.86853564     0.42564718
     0.09183673     0.90699717     0.42564718
     0.09183673     0.94545871     0.42564718
     0.09183673     0.98392025     0.42564718
     0.11224490     0.02238179     0.42564718
     0.11224490     0.06084333     0.42564718
     0.11224490     0.09930487     0.42564718
     0.11224490     0.13776640     0.42564718
     0.11224490     0.17622794     0.42564718
     0.11224490     0.21468948     0.42564718
     0.11224490     0.25315102     0.42564718
     0.11224490     0.29161256     0.42564718
     0.11224490     0.33007410     0.42564718
     0.11224490     0.36853564     0.42564718
     0.11224490     0.40699717     0.42564718
     0.11224490     0.44545871     0.42564718
     0.11224490     0.48392025     0.42564718
     0.11224490     0.52238179     0.42564718
     0.11224490     0.56084333     0.42564718
     0.11224490     0.59930487     0.42564718
     0.11224490     0.63776640     0.42564718
     0.11224490     0.67622794     0.42564718
     0.11224490     0.71468948     0.42564718
     0.11224490     0.75315102     0.42564718
     0.11224490     0.79161256     0.42564718
     0.11224490     0.83007410     0.42564718
     0.11224490     0.86853564     0.42564718
     0.11224490     0.90699717     0.42564718
     0.11224490     0.94545871     0.42564718
     0.11224490     0.98392025     0.42564718
     0.13265306     0.02238179     0.42564718
     0.13265306     0.06084333     0.42564718
     0.13265306     0.09930487     0.42564718
     0.13265306     0.13776640     0.42564718
     0.13265306     0.17622794     0.42564718
     0.13265306     0.21468948     0.42564718
     0.13265306     0.25315102     0.42564718
     0.13265306     0.29161256     0.42564718
     0.13265306     0.33007410     0.42564718
     0.13265306     0.36853564     0.42564718
     0.13265306     0.40699717     0.42564718
     0.13265306     0.44545871     0.42564718
     0.13265306     0.48392025     0.42564718
     0.13265306     0.52238179     0.42564718
     0.13265306     0.56084333     0.42564718
     0.13265306     0.59930487     0.42564718
     0.13265306     0.63776640     0.42564718
     0.13265306     0.67622794     0.42564718
     0.13265306     0.71468948     0.42564718
     0.13265306     0.75315102     0.42564718
     0.13265306     0.79161256     0.42564718
     0.13265306     0.83007410     0.42564718
     0.13265306     0.86853564     0.42564718
     0.13265306     0.90699717     0.42564718
     0.13265306     0.94545871     0.42564718
     0.13265306     0.98392025     0.42564718
     0.15306122     0.02238179     0.42564718
     0.15306122     0.06084333     0.42564718
     0.15306122     0.09930487     0.42564718
     0.15306122     0.13776640     0.42564718
     0.15306122     0.17622794     0.42564718
     0.15306122     0.21468948     0.42564718
     0.15306122     0.25315102     0.42564718
     0.15306122     0.29161256     0.42564718
     0.15306122     0.33007410     0.42564718
     0.15306122     0.36853564     0.42564718
     0.15306122     0.40699717     0.42564718
     0.15306122     0.44545871     0.42564718
     0.15306122     0.48392025     0.42564718
     0.15306122     0.52238179     0.42564718
     0.15306122     0.56084333     0.42564718
     0.15306122     0.59930487     0.42564718
     0.15306122     0.63776640     0.42564718
     0.15306122     0.67622794     0.42564718
     0.15306122     0.71468948     0.42564718
     0.15306122     0.75315102     0.42564718
     0.15306122     0.79161256     0.42564718
     0.15306122     0.83007410     0.42564718
     0.15306122     0.86853564     0.42564718
     0.15306122     0.90699717     0.42564718
     0.15306122     0.94545871     0.42564718
     0.15306122     0.98392025     0.42564718
     0.17346939     0.02238179     0.42564718
     0.17346939     0.06084333     0.42564718
     0.17346939     0.09930487     0.42564718
     0.17346939     0.13776640     0.42564718
     0.17346939     0.17622794     0.42564718
     0.17346939     0.21468948     0.42564718
     0.17346939     0.25315102     0.42564718
     0.17346939     0.29161256     0.42564718
     0.17346939     0.33007410     0.42564718
     0.17346939     0.36853564     0.42564718
     0.17346939     0.40699717     0.42564718
     0.17346939     0.44545871     0.42564718
     0.17346939     0.48392025     0.42564718
     0.17346939     0.52238179     0.42564718
     0.17346939     0.56084333     0.42564718
     0.17346939     0.59930487     0.42564718
     0.17346939     0.63776640     0.42564718
     0.17346939     0.67622794     0.42564718
     0.17346939     0.71468948     0.42564718
     0.17346939     0.75315102     0.42564718
     0.17346939     0.79161256     0.42564718
     0.17346939     0.83007410     0.42564718
     0.17346939     0.86853564     0.42564718
     0.17346939     0.90699717     0.42564718
     0.17346939     0.94545871     0.42564718
     0.17346939     0.98392025     0.42564718
     0.19387755     0.02238179     0.42564718
     0.19387755     0.06084333     0.42564718
     0.19387755     0.09930487     0.42564718
     0.19387755     0.13776640     0.42564718
     0.19387755     0.17622794     0.42564718
     0.19387755     0.21468948     0.42564718
     0.19387755     0.25315102     0.42564718
     0.19387755     0.29161256     0.42564718
     0.19387755     0.33007410     0.42564718
     0.19387755     0.36853564     0.42564718
     0.19387755     0.40699717     0.42564718
     0.19387755     0.44545871     0.42564718
     0.19387755     0.48392025     0.42564718
     0.19387755     0.52238179     0.42564718
     0.19387755     0.56084333     0.42564718
     0.19387755     0.59930487     0.42564718
     0.19387755     0.63776640     0.42564718
     0.19387755     0.67622794     0.42564718
     0.19387755     0.71468948     0.42564718
     0.19387755     0.75315102     0.42564718
     0.19387755     0.79161256     0.42564718
     0.19387755     0.83007410     0.42564718
     0.19387755     0.86853564     0.42564718
     0.19387755     0.90699717     0.42564718
     0.19387755     0.94545871     0.42564718
     0.19387755     0.98392025     0.42564718
     0.21428571     0.02238179     0.42564718
     0.21428571     0.06084333     0.42564718
     0.21428571     0.09930487     0.42564718
     0.21428571     0.13776640     0.42564718
     0.21428571     0.17622794     0.42564718
     0.21428571     0.21468948     0.42564718
     0.21428571     0.25315102     0.42564718
     0.21428571     0.29161256     0.42564718
     0.21428571     0.33007410     0.42564718
     0.21428571     0.36853564     0.42564718
     0.21428571     0.40699717     0.42564718
     0.21428571     0.44545871     0.42564718
     0.21428571     0.48392025     0.42564718
     0.21428571     0.52238179     0.42564718
     0.21428571     0.56084333     0.42564718
     0.21428571     0.59930487     0.42564718
     0.21428571     0.63776640     0.42564718
     0.21428571     0.67622794     0.42564718
     0.21428571     0.71468948     0.42564718
     0.21428571     0.75315102     0.42564718
     0.21428571     0.79161256     0.42564718
     0.21428571     0.83007410     0.42564718
     0.21428571     0.86853564     0.42564718
     0.21428571     0.90699717     0.42564718
     0.21428571     0.94545871     0.42564718
     0.21428571     0.98392025     0.42564718
     0.23469388     0.02238179     0.42564718
     0.23469388     0.06084333     0.42564718
     0.23469388     0.09930487     0.42564718
     0.23469388     0.13776640     0.42564718
     0.23469388     0.17622794     0.42564718
     0.23469388     0.21468948     0.42564718
     0.23469388     0.25315102     0.42564718
     0.23469388     0.29161256     0.42564718
     0.23469388     0.33007410     0.42564718
     0.23469388     0.36853564     0.42564718
     0.23469388     0.40699717     0.42564718
     0.23469388     0.44545871     0.42564718
     0.23469388     0.48392025     0.42564718
     0.23469388     0.52238179     0.42564718
     0.23469388     0.56084333     0.42564718
     0.23469388     0.59930487     0.42564718
     0.23469388     0.63776640     0.42564718
     0.23469388     0.67622794     0.42564718
     0.23469388     0.71468948     0.42564718
     0.23469388     0.75315102     0.42564718
     0.23469388     0.79161256     0.42564718
     0.23469388     0.83007410     0.42564718
     0.23469388     0.86853564     0.42564718
     0.23469388     0.90699717     0.42564718
     0.23469388     0.94545871     0.42564718
     0.23469388     0.98392025     0.42564718
     0.25510204     0.02238179     0.42564718
     0.25510204     0.06084333     0.42564718
     0.25510204     0.09930487     0.42564718
     0.25510204     0.13776640     0.42564718
     0.25510204     0.17622794     0.42564718
     0.25510204     0.21468948     0.42564718
     0.25510204     0.25315102     0.42564718
     0.25510204     0.29161256     0.42564718
     0.25510204     0.33007410     0.42564718
     0.25510204     0.36853564     0.42564718
     0.25510204     0.40699717     0.42564718
     0.25510204     0.44545871     0.42564718
     0.25510204     0.48392025     0.42564718
     0.25510204     0.52238179     0.42564718
     0.25510204     0.56084333     0.42564718
     0.25510204     0.59930487     0.42564718
     0.25510204     0.63776640     0.42564718
     0.25510204     0.67622794     0.42564718
     0.25510204     0.71468948     0.42564718
     0.25510204     0.75315102     0.42564718
     0.25510204     0.79161256     0.42564718
     0.25510204     0.83007410     0.42564718
     0.25510204     0.86853564     0.42564718
     0.25510204     0.90699717     0.42564718
     0.25510204     0.94545871     0.42564718
     0.25510204     0.98392025     0.42564718
     0.27551020     0.02238179     0.42564718
     0.27551020     0.06084333     0.42564718
     0.27551020     0.09930487     0.42564718
     0.27551020     0.13776640     0.42564718
     0.27551020     0.17622794     0.42564718
     0.27551020     0.21468948     0.42564718
     0.27551020     0.25315102     0.42564718
     0.27551020     0.29161256     0.42564718
     0.27551020     0.33007410     0.42564718
     0.27551020     0.36853564     0.42564718
     0.27551020     0.40699717     0.42564718
     0.27551020     0.44545871     0.42564718
     0.27551020     0.48392025     0.42564718
     0.27551020     0.52238179     0.42564718
     0.27551020     0.56084333     0.42564718
     0.27551020     0.59930487     0.42564718
     0.27551020     0.63776640     0.42564718
     0.27551020     0.67622794     0.42564718
     0.27551020     0.71468948     0.42564718
     0.27551020     0.75315102     0.42564718
     0.27551020     0.79161256     0.42564718
     0.27551020     0.83007410     0.42564718
     0.27551020     0.86853564     0.42564718
     0.27551020     0.90699717     0.42564718
     0.27551020     0.94545871     0.42564718
     0.27551020     0.98392025     0.42564718
     0.29591837     0.02238179     0.42564718
     0.29591837     0.06084333     0.42564718
     0.29591837     0.09930487     0.42564718
     0.29591837     0.13776640     0.42564718
     0.29591837     0.17622794     0.42564718
     0.29591837     0.21468948     0.42564718
     0.29591837     0.25315102     0.42564718
     0.29591837     0.29161256     0.42564718
     0.29591837     0.33007410     0.42564718
     0.29591837     0.36853564     0.42564718
     0.29591837     0.40699717     0.42564718
     0.29591837     0.44545871     0.42564718
     0.29591837     0.48392025     0.42564718
     0.29591837     0.52238179     0.42564718
     0.29591837     0.56084333     0.42564718
     0.29591837     0.59930487     0.42564718
     0.29591837     0.63776640     0.42564718
     0.29591837     0.67622794     0.42564718
     0.29591837     0.71468948     0.42564718
     0.29591837     0.75315102     0.42564718
     0.29591837     0.79161256     0.42564718
     0.29591837     0.83007410     0.42564718
     0.29591837     0.86853564     0.42564718
     0.29591837     0.90699717     0.42564718
     0.29591837     0.94545871     0.42564718
     0.29591837     0.98392025     0.42564718
     0.31632653     0.02238179     0.42564718
     0.31632653     0.06084333     0.42564718
     0.31632653     0.09930487     0.42564718
     0.31632653     0.13776640     0.42564718
     0.31632653     0.17622794     0.42564718
     0.31632653     0.21468948     0.42564718
     0.31632653     0.25315102     0.42564718
     0.31632653     0.29161256     0.42564718
     0.31632653     0.33007410     0.42564718
     0.31632653     0.36853564     0.42564718
     0.31632653     0.40699717     0.42564718
     0.31632653     0.44545871     0.42564718
     0.31632653     0.48392025     0.42564718
     0.31632653     0.52238179     0.42564718
     0.31632653     0.56084333     0.42564718
     0.31632653     0.59930487     0.42564718
     0.31632653     0.63776640     0.42564718
     0.31632653     0.67622794     0.42564718
     0.31632653     0.71468948     0.42564718
     0.31632653     0.75315102     0.42564718
     0.31632653     0.79161256     0.42564718
     0.31632653     0.83007410     0.42564718
     0.31632653     0.86853564     0.42564718
     0.31632653     0.90699717     0.42564718
     0.31632653     0.94545871     0.42564718
     0.31632653     0.98392025     0.42564718
     0.33673469     0.02238179     0.42564718
     0.33673469     0.06084333     0.42564718
     0.33673469     0.09930487     0.42564718
     0.33673469     0.13776640     0.42564718
     0.33673469     0.17622794     0.42564718
     0.33673469     0.21468948     0.42564718
     0.33673469     0.25315102     0.42564718
     0.33673469     0.29161256     0.42564718
     0.33673469     0.33007410     0.42564718
     0.33673469     0.36853564     0.42564718
     0.33673469     0.40699717     0.42564718
     0.33673469     0.44545871     0.42564718
     0.33673469     0.48392025     0.42564718
     0.33673469     0.52238179     0.42564718
     0.33673469     0.56084333     0.42564718
     0.33673469     0.59930487     0.42564718
     0.33673469     0.63776640     0.42564718
     0.33673469     0.67622794     0.42564718
     0.33673469     0.71468948     0.42564718
     0.33673469     0.75315102     0.42564718
     0.33673469     0.79161256     0.42564718
     0.33673469     0.83007410     0.42564718
     0.33673469     0.86853564     0.42564718
     0.33673469     0.90699717     0.42564718
     0.33673469     0.94545871     0.42564718
     0.33673469     0.98392025     0.42564718
     0.35714286     0.02238179     0.42564718
     0.35714286     0.06084333     0.42564718
     0.35714286     0.09930487     0.42564718
     0.35714286     0.13776640     0.42564718
     0.35714286     0.17622794     0.42564718
     0.35714286     0.21468948     0.42564718
     0.35714286     0.25315102     0.42564718
     0.35714286     0.29161256     0.42564718
     0.35714286     0.33007410     0.42564718
     0.35714286     0.36853564     0.42564718
     0.35714286     0.40699717     0.42564718
     0.35714286     0.44545871     0.42564718
     0.35714286     0.48392025     0.42564718
     0.35714286     0.52238179     0.42564718
     0.35714286     0.56084333     0.42564718
     0.35714286     0.59930487     0.42564718
     0.35714286     0.63776640     0.42564718
     0.35714286     0.67622794     0.42564718
     0.35714286     0.71468948     0.42564718
     0.35714286     0.75315102     0.42564718
     0.35714286     0.79161256     0.42564718
     0.35714286     0.83007410     0.42564718
     0.35714286     0.86853564     0.42564718
     0.35714286     0.90699717     0.42564718
     0.35714286     0.94545871     0.42564718
     0.35714286     0.98392025     0.42564718
     0.37755102     0.02238179     0.42564718
     0.37755102     0.06084333     0.42564718
     0.37755102     0.09930487     0.42564718
     0.37755102     0.13776640     0.42564718
     0.37755102     0.17622794     0.42564718
     0.37755102     0.21468948     0.42564718
     0.37755102     0.25315102     0.42564718
     0.37755102     0.29161256     0.42564718
     0.37755102     0.33007410     0.42564718
     0.37755102     0.36853564     0.42564718
     0.37755102     0.40699717     0.42564718
     0.37755102     0.44545871     0.42564718
     0.37755102     0.48392025     0.42564718
     0.37755102     0.52238179     0.42564718
     0.37755102     0.56084333     0.42564718
     0.37755102     0.59930487     0.42564718
     0.37755102     0.63776640     0.42564718
     0.37755102     0.67622794     0.42564718
     0.37755102     0.71468948     0.42564718
     0.37755102     0.75315102     0.42564718
     0.37755102     0.79161256     0.42564718
     0.37755102     0.83007410     0.42564718
     0.37755102     0.86853564     0.42564718
     0.37755102     0.90699717     0.42564718
     0.37755102     0.94545871     0.42564718
     0.37755102     0.98392025     0.42564718
     0.39795918     0.02238179     0.42564718
     0.39795918     0.06084333     0.42564718
     0.39795918     0.09930487     0.42564718
     0.39795918     0.13776640     0.42564718
     0.39795918     0.17622794     0.42564718
     0.39795918     0.21468948     0.42564718
     0.39795918     0.25315102     0.42564718
     0.39795918     0.29161256     0.42564718
     0.39795918     0.33007410     0.42564718
     0.39795918     0.36853564     0.42564718
     0.39795918     0.40699717     0.42564718
     0.39795918     0.44545871     0.42564718
     0.39795918     0.48392025     0.42564718
     0.39795918     0.52238179     0.42564718
     0.39795918     0.56084333     0.42564718
     0.39795918     0.59930487     0.42564718
     0.39795918     0.63776640     0.42564718
     0.39795918     0.67622794     0.42564718
     0.39795918     0.71468948     0.42564718
     0.39795918     0.75315102     0.42564718
     0.39795918     0.79161256     0.42564718
     0.39795918     0.83007410     0.42564718
     0.39795918     0.86853564     0.42564718
     0.39795918     0.90699717     0.42564718
     0.39795918     0.94545871     0.42564718
     0.39795918     0.98392025     0.42564718
     0.41836735     0.02238179     0.42564718
     0.41836735     0.06084333     0.42564718
     0.41836735     0.09930487     0.42564718
     0.41836735     0.13776640     0.42564718
     0.41836735     0.17622794     0.42564718
     0.41836735     0.21468948     0.42564718
     0.41836735     0.25315102     0.42564718
     0.41836735     0.29161256     0.42564718
     0.41836735     0.33007410     0.42564718
     0.41836735     0.36853564     0.42564718
     0.41836735     0.40699717     0.42564718
     0.41836735     0.44545871     0.42564718
     0.41836735     0.48392025     0.42564718
     0.41836735     0.52238179     0.42564718
     0.41836735     0.56084333     0.42564718
     0.41836735     0.59930487     0.42564718
     0.41836735     0.63776640     0.42564718
     0.41836735     0.67622794     0.42564718
     0.41836735     0.71468948     0.42564718
     0.41836735     0.75315102     0.42564718
     0.41836735     0.79161256     0.42564718
     0.41836735     0.83007410     0.42564718
     0.41836735     0.86853564     0.42564718
     0.41836735     0.90699717     0.42564718
     0.41836735     0.94545871     0.42564718
     0.41836735     0.98392025     0.42564718
     0.43877551     0.02238179     0.42564718
     0.43877551     0.06084333     0.42564718
     0.43877551     0.09930487     0.42564718
     0.43877551     0.13776640     0.42564718
     0.43877551     0.17622794     0.42564718
     0.43877551     0.21468948     0.42564718
     0.43877551     0.25315102     0.42564718
     0.43877551     0.29161256     0.42564718
     0.43877551     0.33007410     0.42564718
     0.43877551     0.36853564     0.42564718
     0.43877551     0.40699717     0.42564718
     0.43877551     0.44545871     0.42564718
     0.43877551     0.48392025     0.42564718
     0.43877551     0.52238179     0.42564718
     0.43877551     0.56084333     0.42564718
     0.43877551     0.59930487     0.42564718
     0.43877551     0.63776640     0.42564718
     0.43877551     0.67622794     0.42564718
     0.43877551     0.71468948     0.42564718
     0.43877551     0.75315102     0.42564718
     0.43877551     0.79161256     0.42564718
     0.43877551     0.83007410     0.42564718
     0.43877551     0.86853564     0.42564718
     0.43877551     0.90699717     0.42564718
     0.43877551     0.94545871     0.42564718
     0.43877551     0.98392025     0.42564718
     0.45918367     0.02238179     0.42564718
     0.45918367     0.06084333     0.42564718
     0.45918367     0.09930487     0.42564718
     0.45918367     0.13776640     0.42564718
     0.45918367     0.17622794     0.42564718
     0.45918367     0.21468948     0.42564718
     0.45918367     0.25315102     0.42564718
     0.45918367     0.29161256     0.42564718
     0.45918367     0.33007410     0.42564718
     0.45918367     0.36853564     0.42564718
     0.45918367     0.40699717     0.42564718
     0.45918367     0.44545871     0.42564718
     0.45918367     0.48392025     0.42564718
     0.45918367     0.52238179     0.42564718
     0.45918367     0.56084333     0.42564718
     0.45918367     0.59930487     0.42564718
     0.45918367     0.63776640     0.42564718
     0.45918367     0.67622794     0.42564718
     0.45918367     0.71468948     0.42564718
     0.45918367     0.75315102     0.42564718
     0.45918367     0.79161256     0.42564718
     0.45918367     0.83007410     0.42564718
     0.45918367     0.86853564     0.42564718
     0.45918367     0.90699717     0.42564718
     0.45918367     0.94545871     0.42564718
     0.45918367     0.98392025     0.42564718
     0.47959184     0.02238179     0.42564718
     0.47959184     0.06084333     0.42564718
     0.47959184     0.09930487     0.42564718
     0.47959184     0.13776640     0.42564718
     0.47959184     0.17622794     0.42564718
     0.47959184     0.21468948     0.42564718
     0.47959184     0.25315102     0.42564718
     0.47959184     0.29161256     0.42564718
     0.47959184     0.33007410     0.42564718
     0.47959184     0.36853564     0.42564718
     0.47959184     0.40699717     0.42564718
     0.47959184     0.44545871     0.42564718
     0.47959184     0.48392025     0.42564718
     0.47959184     0.52238179     0.42564718
     0.47959184     0.56084333     0.42564718
     0.47959184     0.59930487     0.42564718
     0.47959184     0.63776640     0.42564718
     0.47959184     0.67622794     0.42564718
     0.47959184     0.71468948     0.42564718
     0.47959184     0.75315102     0.42564718
     0.47959184     0.79161256     0.42564718
     0.47959184     0.83007410     0.42564718
     0.47959184     0.86853564     0.42564718
     0.47959184     0.90699717     0.42564718
     0.47959184     0.94545871     0.42564718
     0.47959184     0.98392025     0.42564718
     0.50000000     0.02238179     0.42564718
     0.50000000     0.06084333     0.42564718
     0.50000000     0.09930487     0.42564718
     0.50000000     0.13776640     0.42564718
     0.50000000     0.17622794     0.42564718
     0.50000000     0.21468948     0.42564718
     0.50000000     0.25315102     0.42564718
     0.50000000     0.29161256     0.42564718
     0.50000000     0.33007410     0.42564718
     0.50000000     0.36853564     0.42564718
     0.50000000     0.40699717     0.42564718
     0.50000000     0.44545871     0.42564718
     0.50000000     0.48392025     0.42564718
     0.50000000     0.52238179     0.42564718
     0.50000000     0.56084333     0.42564718
     0.50000000     0.59930487     0.42564718
     0.50000000     0.63776640     0.42564718
     0.50000000     0.67622794     0.42564718
     0.50000000     0.71468948     0.42564718
     0.50000000     0.75315102     0.42564718
     0.50000000     0.79161256     0.42564718
     0.50000000     0.83007410     0.42564718
     0.50000000     0.86853564     0.42564718