Generated by Twist2D
    1.0
     154.95898284       0.00000000       0.00000000
       0.00000000     119.62313088       0.00000000
       0.00000000       0.00000000      20.00000000
    P
    10156
Direct
     0.01063830     0.02155283     0.42564718
     0.01063830     0.05858987     0.42564718
     0.01063830     0.09562691     0.42564718
     0.01063830     0.13266395     0.42564718
     0.01063830     0.16970098     0.42564718
     0.01063830     0.20673802     0.42564718
     0.01063830     0.24377506     0.42564718
     0.01063830     0.28081209     0.42564718
     0.01063830     0.31784913     0.42564718
     0.01063830     0.35488617     0.42564718
     0.01063830     0.39192320     0.42564718
     0.01063830     0.42896024     0.42564718
     0.01063830     0.46599728     0.42564718
     0.01063830     0.50303432     0.42564718
     0.01063830     0.54007135     0.42564718
     0.01063830     0.57710839     0.42564718
     0.01063830     0.61414543     0.42564718
     0.01063830     0.65118246     0.42564718
     0.01063830     0.68821950     0.42564718
     0.01063830     0.72525654     0.42564718
     0.01063830     0.76229357     0.42564718
     0.01063830     0.79933061     0.42564718
     0.01063830     0.83636765     0.42564718
     0.01063830     0.87340469     0.42564718
     0.01063830     0.91044172     0.42564718
     0.01063830     0.94747876     0.42564718
     0.01063830     0.98451580     0.42564718
     0.03191489     0.02155283     0.42564718
     0.03191489     0.05858987     0.42564718
     0.03191489     0.09562691     0.42564718
     0.03191489     0.13266395     0.42564718
     0.03191489     0.16970098     0.42564718
     0.03191489     0.20673802     0.42564718
     0.03191489     0.24377506     0.42564718
     0.03191489     0.28081209     0.42564718
     0.03191489     0.31784913     0.42564718
     0.03191489     0.35488617     0.42564718
     0.03191489     0.39192320     0.42564718
     0.03191489     0.42896024     0.42564718
     0.03191489     0.46599728     0.42564718
     0.03191489     0.50303432     0.42564718
     0.03191489     0.54007135     0.42564718
     0.03191489     0.57710839     0.42564718
     0.03191489     0.61414543     0.42564718
     0.03191489     0.65118246     0.42564718
     0.03191489     0.68821950     0.42564718
     0.03191489     0.72525654     0.42564718
     0.03191489     0.76229357     0.42564718
     0.03191489     0.79933061     0.42564718
     0.03191489     0.83636765     0.42564718
     0.03191489     0.87340469     0.42564718
     0.03191489     0.91044172     0.42564718
     0.03191489     0.94747876     0.42564718
     0.03191489     0.98451580     0.42564718
     0.05319149     0.02155283     0.42564718
     0.05319149     0.05858987     0.42564718
     0.05319149     0.09562691     0.42564718
     0.05319149     0.13266395     0.42564718
     0.05319149     0.16970098     0.42564718
     0.05319149     0.20673802     0.42564718
     0.05319149     0.24377506     0.42564718
     0.05319149     0.28081209     0.42564718
     0.05319149     0.31784913     0.42564718
     0.05319149     0.35488617     0.42564718
     0.05319149     0.39192320     0.42564718
     0.05319149     0.42896024     0.42564718
     0.05319149     0.46599728     0.42564718
     0.05319149     0.50303432     0.42564718
     0.05319149     0.54007135     0.42564718
     0.05319149     0.57710839     0.42564718
     0.05319149     0.61414543     0.42564718
     0.05319149     0.65118246     0.42564718
     0.05319149     0.68821950     0.42564718
     0.05319149     0.72525654     0.42564718
     0.05319149     0.76229357     0.42564718
     0.05319149     0.79933061     0.42564718
     0.05319149     0.83636765     0.42564718
     0.05319149     0.87340469     0.42564718
     0.05319149     0.91044172     0.42564718
     0.05319149     0.94747876     0.42564718
     0.05319149     0.98451580     0.42564718
     0.07446809     0.02155283     0.42564718
     0.07446809     0.05858987     0.42564718
     0.07446809     0.09562691     0.42564718
     0.07446809     0.13266395     0.42564718
     0.07446809     0.16970098     0.42564718
     0.07446809     0.20673802     0.42564718
     0.07446809     0.24377506     0.42564718
     0.07446809     0.28081209     0.42564718
     0.07446809     0.31784913     0.42564718
     0.07446809     0.35488617     0.42564718
     0.07446809     0.39192320     0.42564718
     0.07446809     0.42896024     0.42564718
     0.07446809     0.46599728     0.42564718
     0.07446809     0.50303432     0.42564718
     0.07446809     0.54007135     0.42564718
     0.07446809     0.57710839     0.42564718
     0.07446809     0.61414543     0.42564718
     0.07446809     0.65118246     0.42564718
     0.07446809     0.68821950     0.42564718
     0.07446809     0.72525654     0.42564718
     0.07446809     0.76229357     0.42564718
     0.07446809     0.79933061     0.42564718
     0.07446809     0.83636765     0.42564718
     0.07446809     0.87340469     0.42564718
     0.07446809     0.91044172     0.42564718
     0.07446809     0.94747876     0.42564718
     0.07446809     0.98451580     0.42564718
     0.09574468     0.02155283     0.42564718
     0.09574468     0.05858987     0.42564718
     0.09574468     0.09562691     0.42564718
     0.09574468     0.13266395     0.42564718
     0.09574468     0.16970098     0.42564718
     0.09574468     0.20673802     0.42564718
     0.09574468     0.24377506     0.42564718
     0.09574468     0.28081209     0.42564718
     0.09574468     0.31784913     0.42564718
     0.09574468     0.35488617     0.42564718
     0.09574468     0.39192320     0.42564718
     0.09574468     0.42896024     0.42564718
     0.09574468     0.46599728     0.42564718
     0.09574468     0.50303432     0.42564718
     0.09574468     0.54007135     0.42564718
     0.09574468     0.57710839     0.42564718
     0.09574468     0.61414543     0.42564718
     0.09574468     0.65118246     0.42564718
     0.09574468     0.68821950     0.42564718
     0.09574468     0.72525654     0.42564718
     0.09574468     0.76229357     0.42564718
     0.09574468     0.79933061     0.42564718
     0.09574468     0.83636765     0.42564718
     0.09574468     0.87340469     0.42564718
     0.09574468     0.91044172     0.42564718
     0.09574468     0.94747876     0.42564718
     0.09574468     0.98451580     0.42564718
     0.11702128     0.02155283     0.42564718
     0.11702128     0.05858987     0.42564718
     0.11702128     0.09562691     0.42564718
     0.11702128     0.13266395     0.42564718
     0.11702128     0.16970098     0.42564718
     0.11702128     0.20673802     0.42564718
     0.11702128     0.24377506     0.42564718
     0.11702128     0.28081209     0.42564718
     0.11702128     0.31784913     0.42564718
     0.11702128     0.35488617     0.42564718
     0.11702128     0.39192320     0.42564718
     0.11702128     0.42896024     0.42564718
     0.11702128     0.46599728     0.42564718
     0.11702128     0.50303432     0.42564718
     0.11702128     0.54007135     0.42564718
     0.11702128     0.57710839     0.42564718
     0.11702128     0.61414543     0.42564718
     0.11702128     0.65118246     0.42564718
     0.11702128     0.68821950     0.42564718
     0.11702128     0.72525654     0.42564718
     0.11702128     0.76229357     0.42564718
     0.11702128     0.79933061     0.42564718
     0.11702128     0.83636765     0.42564718
     0.11702128     0.87340469     0.42564718
     0.11702128     0.91044172     0.42564718
     0.11702128     0.94747876     0.42564718
     0.11702128     0.98451580     0.42564718
     0.13829787     0.02155283     0.42564718
     0.13829787     0.05858987     0.42564718
     0.13829787     0.09562691     0.42564718
     0.13829787     0.13266395     0.42564718
     0.13829787     0.16970098     0.42564718
     0.13829787     0.20673802     0.42564718
     0.13829787     0.24377506     0.42564718
     0.13829787     0.28081209     0.42564718
     0.13829787     0.31784913     0.42564718
     0.13829787     0.35488617     0.42564718
     0.13829787     0.39192320     0.42564718
     0.13829787     0.42896024     0.42564718
     0.13829787     0.46599728     0.42564718
     0.13829787     0.50303432     0.42564718
     0.13829787     0.54007135     0.42564718
     0.13829787     0.57710839     0.42564718
     0.13829787     0.61414543     0.42564718
     0.13829787     0.65118246     0.42564718
     0.13829787     0.68821950     0.42564718
     0.13829787     0.72525654     0.42564718
     0.13829787     0.76229357     0.42564718
     0.13829787     0.79933061     0.42564718
     0.13829787     0.83636765     0.42564718
     0.13829787     0.87340469     0.42564718
     0.13829787     0.91044172     0.42564718
     0.13829787     0.94747876     0.42564718
     0.13829787     0.98451580     0.42564718
     0.15957447     0.02155283     0.42564718
     0.15957447     0.05858987     0.42564718
     0.15957447     0.09562691     0.42564718
     0.15957447     0.13266395     0.42564718
     0.15957447     0.16970098     0.42564718
     0.15957447     0.20673802     0.42564718
     0.15957447     0.24377506     0.42564718
     0.15957447     0.28081209     0.42564718
     0.15957447     0.31784913     0.42564718
     0.15957447     0.35488617     0.42564718
     0.15957447     0.39192320     0.42564718
     0.15957447     0.42896024     0.42564718
     0.15957447     0.46599728     0.42564718
     0.15957447     0.50303432     0.42564718
     0.15957447     0.54007135     0.42564718
     0.15957447     0.57710839     0.42564718
     0.15957447     0.61414543     0.42564718
     0.15957447     0.65118246     0.42564718
     0.15957447     0.68821950     0.42564718
     0.15957447     0.72525654     0.42564718
     0.15957447     0.76229357     0.42564718
     0.15957447     0.79933061     0.42564718
     0.15957447     0.83636765     0.42564718
     0.15957447     0.87340469     0.42564718
     0.15957447     0.91044172     0.42564718
     0.15957447     0.94747876     0.42564718
     0.15957447     0.98451580     0.42564718
     0.18085106     0.02155283     0.42564718
     0.18085106     0.05858987     0.42564718
     0.18085106     0.09562691     0.42564718
     0.18085106     0.13266395     0.42564718
     0.18085106     0.16970098     0.42564718
     0.18085106     0.20673802     0.42564718
     0.18085106     0.24377506     0.42564718
     0.18085106     0.28081209     0.42564718
     0.18085106     0.31784913     0.42564718
     0.18085106     0.35488617     0.42564718
     0.18085106     0.39192320     0.42564718
     0.18085106     0.42896024     0.42564718
     0.18085106     0.46599728     0.42564718
     0.18085106     0.50303432     0.42564718
     0.18085106     0.54007135     0.42564718
     0.18085106     0.57710839     0.42564718
     0.18085106     0.61414543     0.42564718
     0.18085106     0.65118246     0.42564718
     0.18085106     0.68821950     0.42564718
     0.18085106     0.72525654     0.42564718
     0.18085106     0.76229357     0.42564718
     0.18085106     0.79933061     0.42564718
     0.18085106     0.83636765     0.42564718
     0.18085106     0.87340469     0.42564718
     0.18085106     0.91044172     0.42564718
     0.18085106     0.94747876     0.42564718
     0.18085106     0.98451580     0.42564718
     0.20212766     0.02155283     0.42564718
     0.20212766     0.05858987     0.42564718
     0.20212766     0.09562691     0.42564718
     0.20212766     0.13266395     0.42564718
     0.20212766     0.16970098     0.42564718
     0.20212766     0.20673802     0.42564718
     0.20212766     0.24377506     0.42564718
     0.20212766     0.28081209     0.42564718
     0.20212766     0.31784913     0.42564718
     0.20212766     0.35488617     0.42564718
     0.20212766     0.39192320     0.42564718
     0.20212766     0.42896024     0.42564718
     0.20212766     0.46599728     0.42564718
     0.20212766     0.50303432     0.42564718
     0.20212766     0.54007135     0.42564718
     0.20212766     0.57710839     0.42564718
     0.20212766     0.61414543     0.42564718
     0.20212766     0.65118246     0.42564718
     0.20212766     0.68821950     0.42564718
     0.20212766     0.72525654     0.42564718
     0.20212766     0.76229357     0.42564718
     0.20212766     0.79933061     0.42564718
     0.20212766     0.83636765     0.42564718
     0.20212766     0.87340469     0.42564718
     0.20212766     0.91044172     0.42564718
     0.20212766     0.94747876     0.42564718
     0.20212766     0.98451580     0.42564718
     0.22340426     0.02155283     0.42564718
     0.22340426     0.05858987     0.42564718
     0.22340426     0.09562691     0.42564718
     0.22340426     0.13266395     0.42564718
     0.22340426     0.16970098     0.42564718
     0.22340426     0.20673802     0.42564718
     0.22340426     0.24377506     0.42564718
     0.22340426     0.28081209     0.42564718
     0.22340426     0.31784913     0.42564718
     0.22340426     0.35488617     0.42564718
     0.22340426     0.39192320     0.42564718
     0.22340426     0.42896024     0.42564718
     0.22340426     0.46599728     0.42564718
     0.22340426     0.50303432     0.42564718
     0.22340426     0.54007135     0.42564718
     0.22340426     0.57710839     0.42564718
     0.22340426     0.61414543     0.42564718
     0.22340426     0.65118246     0.42564718
     0.22340426     0.68821950     0.42564718
     0.22340426     0.72525654     0.42564718
     0.22340426     0.76229357     0.42564718
     0.22340426     0.79933061     0.42564718
     0.22340426     0.83636765     0.42564718
     0.22340426     0.87340469     0.42564718
     0.22340426     0.91044172     0.42564718
     0.22340426     0.94747876     0.42564718
     0.22340426     0.98451580     0.42564718
     0.24468085     0.02155283     0.42564718
     0.24468085     0.05858987     0.42564718
     0.24468085     0.09562691     0.42564718
     0.24468085     0.13266395     0.42564718
     0.24468085     0.16970098     0.42564718
     0.24468085     0.20673802     0.42564718
     0.24468085     0.24377506     0.42564718
     0.24468085     0.28081209     0.42564718
     0.24468085     0.31784913     0.42564718
     0.24468085     0.35488617     0.42564718
     0.24468085     0.39192320     0.42564718
     0.24468085     0.42896024     0.42564718
     0.24468085     0.46599728     0.42564718
     0.24468085     0.50303432     0.42564718
     0.24468085     0.54007135     0.42564718
     0.24468085     0.57710839     0.42564718
     0.24468085     0.61414543     0.42564718
     0.24468085     0.65118246     0.42564718
     0.24468085     0.68821950     0.42564718
     0.24468085     0.72525654     0.42564718
     0.24468085     0.76229357     0.42564718
     0.24468085     0.79933061     0.42564718
     0.24468085     0.83636765     0.42564718
     0.24468085     0.87340469     0.42564718
     0.24468085     0.91044172     0.42564718
     0.24468085     0.94747876     0.42564718
     0.24468085     0.98451580     0.42564718
     0.26595745     0.02155283     0.42564718
     0.26595745     0.05858987     0.42564718
     0.26595745     0.09562691     0.42564718
     0.26595745     0.13266395     0.42564718
     0.26595745     0.16970098     0.42564718
     0.26595745     0.20673802     0.42564718
     0.26595745     0.24377506     0.42564718
     0.26595745     0.28081209     0.42564718
     0.26595745     0.31784913     0.42564718
     0.26595745     0.35488617     0.42564718
     0.26595745     0.39192320     0.42564718
     0.26595745     0.42896024     0.42564718
     0.26595745     0.46599728     0.42564718
     0.26595745     0.50303432     0.42564718
     0.26595745     0.54007135     0.42564718
     0.26595745     0.57710839     0.42564718
     0.26595745     0.61414543     0.42564718
     0.26595745     0.65118246     0.42564718
     0.26595745     0.68821950     0.42564718
     0.26595745     0.72525654     0.42564718
     0.26595745     0.76229357     0.42564718
     0.26595745     0.79933061     0.42564718
     0.26595745     0.83636765     0.42564718
     0.26595745     0.87340469     0.42564718
     0.26595745     0.91044172     0.42564718
     0.26595745     0.94747876     0.42564718
     0.26595745     0.98451580     0.42564718
     0.28723404     0.02155283     0.42564718
     0.28723404     0.05858987     0.42564718
     0.28723404     0.09562691     0.42564718
     0.28723404     0.13266395     0.42564718
     0.28723404     0.16970098     0.42564718
     0.28723404     0.20673802     0.42564718
     0.28723404     0.24377506     0.42564718
     0.28723404     0.28081209     0.42564718
     0.28723404     0.31784913     0.42564718
     0.28723404     0.35488617     0.42564718
     0.28723404     0.39192320     0.42564718
     0.28723404     0.42896024     0.42564718
     0.28723404     0.46599728     0.42564718
     0.28723404     0.50303432     0.42564718
     0.28723404     0.54007135     0.42564718
     0.28723404     0.57710839     0.42564718
     0.28723404     0.61414543     0.42564718
     0.28723404     0.65118246     0.42564718
     0.28723404     0.68821950     0.42564718
     0.28723404     0.72525654     0.42564718
     0.28723404     0.76229357     0.42564718
     0.28723404     0.79933061     0.42564718
     0.28723404     0.83636765     0.42564718
     0.28723404     0.87340469     0.42564718
     0.28723404     0.91044172     0.42564718
     0.28723404     0.94747876     0.42564718
     0.28723404     0.98451580     0.42564718
     0.30851064     0.02155283     0.42564718
     0.30851064     0.05858987     0.42564718
     0.30851064     0.09562691     0.42564718
     0.30851064     0.13266395     0.42564718
     0.30851064     0.16970098     0.42564718
     0.30851064     0.20673802     0.42564718
     0.30851064     0.24377506     0.42564718
     0.30851064     0.28081209     0.42564718
     0.30851064     0.31784913     0.42564718
     0.30851064     0.35488617     0.42564718
     0.30851064     0.39192320     0.42564718
     0.30851064     0.42896024     0.42564718
     0.30851064     0.46599728     0.42564718
     0.30851064     0.50303432     0.42564718
     0.30851064     0.54007135     0.42564718
     0.30851064     0.57710839     0.42564718
     0.30851064     0.61414543     0.42564718
     0.30851064     0.65118246     0.42564718
     0.30851064     0.68821950     0.42564718
     0.30851064     0.72525654     0.42564718
     0.30851064     0.76229357     0.42564718
     0.30851064     0.79933061     0.42564718
     0.30851064     0.83636765     0.42564718
     0.30851064     0.87340469     0.42564718
     0.30851064     0.91044172     0.42564718
     0.30851064     0.94747876     0.42564718
     0.30851064     0.98451580     0.42564718
     0.32978723     0.02155283     0.42564718
     0.32978723     0.05858987     0.42564718
     0.32978723     0.09562691     0.42564718
     0.32978723     0.13266395     0.42564718
     0.32978723     0.16970098     0.42564718
     0.32978723     0.20673802     0.42564718
     0.32978723     0.24377506     0.42564718
     0.32978723     0.28081209     0.42564718
     0.32978723     0.31784913     0.42564718
     0.32978723     0.35488617     0.42564718
     0.32978723     0.39192320     0.42564718
     0.32978723     0.42896024     0.42564718
     0.32978723     0.46599728     0.42564718
     0.32978723     0.50303432     0.42564718
     0.32978723     0.54007135     0.42564718
     0.32978723     0.57710839     0.42564718
     0.32978723     0.61414543     0.42564718
     0.32978723     0.65118246     0.42564718
     0.32978723     0.68821950     0.42564718
     0.32978723     0.72525654     0.42564718
     0.32978723     0.76229357     0.42564718
     0.32978723     0.79933061     0.42564718
     0.32978723     0.83636765     0.42564718
     0.32978723     0.87340469     0.42564718
     0.32978723     0.91044172     0.42564718
     0.32978723     0.94747876     0.42564718
     0.32978723     0.98451580     0.42564718
     0.35106383     0.02155283     0.42564718
     0.35106383     0.05858987     0.42564718
     0.35106383     0.09562691     0.42564718
     0.35106383     0.13266395     0.42564718
     0.35106383     0.16970098     0.42564718
     0.35106383     0.20673802     0.42564718
     0.35106383     0.24377506     0.42564718
     0.35106383     0.28081209     0.42564718
     0.35106383     0.31784913     0.42564718
     0.35106383     0.35488617     0.42564718
     0.35106383     0.39192320     0.42564718
     0.35106383     0.42896024     0.42564718
     0.35106383     0.46599728     0.42564718
     0.35106383     0.50303432     0.42564718
     0.35106383     0.54007135     0.42564718
     0.35106383     0.57710839     0.42564718
     0.35106383     0.61414543     0.42564718
     0.35106383     0.65118246     0.42564718
     0.35106383     0.68821950     0.42564718
     0.35106383     0.72525654     0.42564718
     0.35106383     0.76229357     0.42564718
     0.35106383     0.79933061     0.42564718
     0.35106383     0.83636765     0.42564718
     0.35106383     0.87340469     0.42564718
     0.35106383     0.91044172     0.42564718
     0.35106383     0.94747876     0.42564718
     0.35106383     0.98451580     0.42564718
     0.37234043     0.02155283     0.42564718
     0.37234043     0.05858987     0.42564718
     0.37234043     0.09562691     0.42564718
     0.37234043     0.13266395     0.42564718
     0.37234043     0.16970098     0.42564718
     0.37234043     0.20673802     0.42564718
     0.37234043     0.24377506     0.42564718
     0.37234043     0.28081209     0.42564718
     0.37234043     0.31784913     0.42564718
     0.37234043     0.35488617     0.42564718
     0.37234043     0.39192320     0.42564718
     0.37234043     0.42896024     0.42564718
     0.37234043     0.46599728     0.42564718
     0.37234043     0.50303432     0.42564718
     0.37234043     0.54007135     0.42564718
     0.37234043     0.57710839     0.42564718
     0.37234043     0.61414543     0.42564718
     0.37234043     0.65118246     0.42564718
     0.37234043     0.68821950     0.42564718
     0.37234043     0.72525654     0.42564718
     0.37234043     0.76229357     0.42564718
     0.37234043     0.79933061     0.42564718
     0.37234043     0.83636765     0.42564718
     0.37234043     0.87340469     0.42564718
     0.37234043     0.91044172     0.42564718
     0.37234043     0.94747876     0.42564718
     0.37234043     0.98451580     0.42564718
     0.39361702     0.02155283     0.42564718
     0.39361702     0.05858987     0.42564718
     0.39361702     0.09562691     0.42564718
     0.39361702     0.13266395     0.42564718
     0.39361702     0.16970098     0.42564718
     0.39361702     0.20673802     0.42564718
     0.39361702     0.24377506     0.42564718
     0.39361702     0.28081209     0.42564718
     0.39361702     0.31784913     0.42564718
     0.39361702     0.35488617     0.42564718
     0.39361702     0.39192320     0.42564718
     0.39361702     0.42896024     0.42564718
     0.39361702     0.46599728     0.42564718
     0.39361702     0.50303432     0.42564718
     0.39361702     0.54007135     0.42564718
     0.39361702     0.57710839     0.42564718
     0.39361702     0.61414543     0.42564718
     0.39361702     0.65118246     0.42564718
     0.39361702     0.68821950     0.42564718
     0.39361702     0.72525654     0.42564718
     0.39361702     0.76229357     0.42564718
     0.39361702     0.79933061     0.42564718
     0.39361702     0.83636765     0.42564718
     0.39361702     0.87340469     0.42564718
     0.39361702     0.91044172     0.42564718
     0.39361702     0.94747876     0.42564718
     0.39361702     0.98451580     0.42564718
     0.41489362     0.02155283     0.42564718
     0.41489362     0.05858987     0.42564718
     0.41489362     0.09562691     0.42564718
     0.41489362     0.13266395     0.42564718
     0.41489362     0.16970098     0.42564718
     0.41489362     0.20673802     0.42564718
     0.41489362     0.24377506     0.42564718
     0.41489362     0.28081209     0.42564718
     0.41489362     0.31784913     0.42564718
     0.41489362     0.35488617     0.42564718
     0.41489362     0.39192320     0.42564718
     0.41489362     0.42896024     0.42564718
     0.41489362     0.46599728     0.42564718
     0.41489362     0.50303432     0.42564718
     0.41489362     0.54007135     0.42564718
     0.41489362     0.57710839     0.42564718
     0.41489362     0.61414543     0.42564718
     0.41489362     0.65118246     0.42564718
     0.41489362     0.68821950     0.42564718
     0.41489362     0.72525654     0.42564718
     0.41489362     0.76229357     0.42564718
     0.41489362     0.79933061     0.42564718
     0.41489362     0.83636765     0.42564718
     0.41489362     0.87340469     0.42564718
     0.41489362     0.91044172     0.42564718
     0.41489362     0.94747876     0.42564718
     0.41489362     0.98451580     0.42564718
     0.43617021     0.02155283     0.42564718
     0.43617021     0.05858987     0.42564718
     0.43617021     0.09562691     0.42564718
     0.43617021     0.13266395     0.42564718
     0.43617021     0.16970098     0.42564718
     0.43617021     0.20673802     0.42564718
     0.43617021     0.24377506     0.42564718
     0.43617021     0.28081209     0.42564718
     0.43617021     0.31784913     0.42564718
     0.43617021     0.35488617     0.42564718
     0.43617021     0.39192320     0.42564718
     0.43617021     0.42896024     0.42564718
     0.43617021     0.46599728     0.42564718
     0.43617021     0.50303432     0.42564718
     0.43617021     0.54007135     0.42564718
     0.43617021     0.57710839     0.42564718
     0.43617021     0.61414543     0.42564718
     0.43617021     0.65118246     0.42564718
     0.43617021     0.68821950     0.42564718
     0.43617021     0.72525654     0.42564718
     0.43617021     0.76229357     0.42564718
     0.43617021     0.79933061     0.42564718
     0.43617021     0.83636765     0.42564718
     0.43617021     0.87340469     0.42564718
     0.43617021     0.91044172     0.42564718
     0.43617021     0.94747876     0.42564718
     0.43617021     0.98451580     0.42564718
     0.45744681     0.02155283     0.42564718
     0.45744681     0.05858987     0.42564718
     0.45744681     0.09562691     0.42564718
     0.45744681     0.13266395     0.42564718
     0.45744681     0.16970098     0.42564718
     0.45744681     0.20673802     0.42564718
     0.45744681     0.24377506     0.42564718
     0.45744681     0.28081209     0.42564718
     0.45744681     0.31784913     0.42564718
     0.45744681     0.35488617     0.42564718
     0.45744681     0.39192320     0.42564718
     0.45744681     0.42896024     0.42564718
     0.45744681     0.46599728     0.42564718
     0.45744681     0.50303432     0.42564718
     0.45744681     0.54007135     0.42564718
     0.45744681     0.57710839     0.42564718
     0.45744681     0.61414543     0.42564718
     0.45744681     0.65118246     0.42564718
     0.45744681     0.68821950     0.42564718
     0.45744681     0.72525654     0.42564718
     0.45744681     0.76229357     0.42564718
     0.45744681     0.79933061     0.42564718
     0.45744681     0.83636765     0.42564718
     0.45744681     0.87340469     0.42564718
     0.45744681     0.91044172     0.42564718
     0.45744681     0.94747876     0.42564718
     0.45744681     0.98451580     0.42564718
     0.47872340     0.02155283     0.42564718
     0.47872340     0.05858987     0.42564718
     0.47872340     0.09562691     0.42564718
     0.47872340     0.13266395     0.42564718
     0.47872340     0.16970098     0.42564718
     0.47872340     0.20673802     0.42564718
     0.47872340     0.24377506     0.42564718
     0.47872340     0.28081209     0.42564718
     0.47872340     0.31784913     0.42564718
     0.47872340     0.35488617     0.42564718
     0.47872340     0.39192320     0.42564718
     0.47872340     0.42896024     0.42564718
     0.47872340     0.46599728     0.42564718
     0.47872340     0.50303432     0.42564718
     0.47872340     0.54007135     0.42564718
     0.47872340     0.57710839     0.42564718
     0.47872340     0.61414543     0.42564718
     0.47872340     0.65118246     0.42564718
     0.47872340     0.68821950     0.42564718
     0.47872340     0.72525654     0.42564718
     0.47872340     0.76229357     0.42564718
     0.47872340     0.79933061     0.42564718
     0.47872340     0.83636765     0.42564718
     0.47872340     0.87340469     0.42564718
     0.47872340     0.91044172     0.42564718
     0.47872340     0.94747876     0.42564718
     0.47872340     0.98451580     0.42564718
     0.50000000     0.02155283     0.42564718
     0.50000000     0.05858987     0.42564718
     0.50000000     0.09562691     0.42564718
     0.50000000     0.13266395     0.42564718
     0.50000000     0.16970098     0.42564718
     0.50000000     0.20673802     0.42564718
     0.50000000     0.24377506     0.42564718
     0.50000000     0.28081209     0.42564718
     0.50000000     0.31784913     0.42564718
     0.50000000     0.35488617     0.42564718
     0.50000000     0.39192320     0.42564718
     0.50000000     0.42896024     0.42564718
     0.50000000     0.46599728     0.42564718
     0.50000000     0.50303432     0.42564718
     0.50000000     0.54007135     0.42564718
     0.50000000     0.57710839     0.42564718
     0.50000000     0.61414543     0.42564718
     0.50000000     0.65118246     0.42564718
     0.50000000     0.68821950     0.42564718
     0.50000000     0.72525654     0.42564718
     0.50000000     0.76229357     0.42564718
     0.50000000     0.79933061     0.42564718
     0.50000000     0.83636765     0.42564718
     0.50000000     0.87340469     0.42564718
     0.50000000     0.91044172     0.42564718
     0.50000000     0.94747876     0.42564718