Generated by Twist2D
    1.0
     171.44398102       0.00000000       0.00000000
       0.00000000     124.05361721       0.00000000
       0.00000000       0.00000000      20.00000000
    P
    11652
Direct
     0.00961538     0.02078309     0.42564718
     0.00961538     0.05649738     0.42564718
     0.00961538     0.09221166     0.42564718
     0.00961538     0.12792595     0.42564718
     0.00961538     0.16364023     0.42564718
     0.00961538     0.19935452     0.42564718
     0.00961538     0.23506880     0.42564718
     0.00961538     0.27078309     0.42564718
     0.00961538     0.30649738     0.42564718
     0.00961538     0.34221166     0.42564718
     0.00961538     0.37792595     0.42564718
     0.00961538     0.41364023     0.42564718
     0.00961538     0.44935452     0.42564718
     0.00961538     0.48506880     0.42564718
     0.00961538     0.52078309     0.42564718
     0.00961538     0.55649738     0.42564718
     0.00961538     0.59221166     0.42564718
     0.00961538     0.62792595     0.42564718
     0.00961538     0.66364023     0.42564718
     0.00961538     0.69935452     0.42564718
     0.00961538     0.73506880     0.42564718
     0.00961538     0.77078309     0.42564718
     0.00961538     0.80649738     0.42564718
     0.00961538     0.84221166     0.42564718
     0.00961538     0.87792595     0.42564718
     0.00961538     0.91364023     0.42564718
     0.00961538     0.94935452     0.42564718
     0.00961538     0.98506880     0.42564718
     0.02884615     0.02078309     0.42564718
     0.02884615     0.05649738     0.42564718
     0.02884615     0.09221166     0.42564718
     0.02884615     0.12792595     0.42564718
     0.02884615     0.16364023     0.42564718
     0.02884615     0.19935452     0.42564718
     0.02884615     0.23506880     0.42564718
     0.02884615     0.27078309     0.42564718
     0.02884615     0.30649738     0.42564718
     0.02884615     0.34221166     0.42564718
     0.02884615     0.37792595     0.42564718
     0.02884615     0.41364023     0.42564718
     0.02884615     0.44935452     0.42564718
     0.02884615     0.48506880     0.42564718
     0.02884615     0.52078309     0.42564718
     0.02884615     0.55649738     0.42564718
     0.02884615     0.59221166     0.42564718
     0.02884615     0.62792595     0.42564718
     0.02884615     0.66364023     0.42564718
     0.02884615     0.69935452     0.42564718
     0.02884615     0.73506880     0.42564718
     0.02884615     0.77078309     0.42564718
     0.02884615     0.80649738     0.42564718
     0.02884615     0.84221166     0.42564718
     0.02884615     0.87792595     0.42564718
     0.02884615     0.91364023     0.42564718
     0.02884615     0.94935452     0.42564718
     0.02884615     0.98506880     0.42564718
     0.04807692     0.02078309     0.42564718
     0.04807692     0.05649738     0.42564718
     0.04807692     0.09221166     0.42564718
     0.04807692     0.12792595     0.42564718
     0.04807692     0.16364023     0.42564718
     0.04807692     0.19935452     0.42564718
     0.04807692     0.23506880     0.42564718
     0.04807692     0.27078309     0.42564718
     0.04807692     0.30649738     0.42564718
     0.04807692     0.34221166     0.42564718
     0.04807692     0.37792595     0.42564718
     0.04807692     0.41364023     0.42564718
     0.04807692     0.44935452     0.42564718
     0.04807692     0.48506880     0.42564718
     0.04807692     0.52078309     0.42564718
     0.04807692     0.55649738     0.42564718
     0.04807692     0.59221166     0.42564718
     0.04807692     0.62792595     0.42564718
     0.04807692     0.66364023     0.42564718
     0.04807692     0.69935452     0.42564718
     0.04807692     0.73506880     0.42564718
     0.04807692     0.77078309     0.42564718
     0.04807692     0.80649738     0.42564718
     0.04807692     0.84221166     0.42564718
     0.04807692     0.87792595     0.42564718
     0.04807692     0.91364023     0.42564718
     0.04807692     0.94935452     0.42564718
     0.04807692     0.98506880     0.42564718
     0.06730769     0.02078309     0.42564718
     0.06730769     0.05649738     0.42564718
     0.06730769     0.09221166     0.42564718
     0.06730769     0.12792595     0.42564718
     0.06730769     0.16364023     0.42564718
     0.06730769     0.19935452     0.42564718
     0.06730769     0.23506880     0.42564718
     0.06730769     0.27078309     0.42564718
     0.06730769     0.30649738     0.42564718
     0.06730769     0.34221166     0.42564718
     0.06730769     0.37792595     0.42564718
     0.06730769     0.41364023     0.42564718
     0.06730769     0.44935452     0.42564718
     0.06730769     0.48506880     0.42564718
     0.06730769     0.52078309     0.42564718
     0.06730769     0.55649738     0.42564718
     0.06730769     0.59221166     0.42564718
     0.06730769     0.62792595     0.42564718
     0.06730769     0.66364023     0.42564718
     0.06730769     0.69935452     0.42564718
     0.06730769     0.73506880     0.42564718
     0.06730769     0.77078309     0.42564718
     0.06730769     0.80649738     0.42564718
     0.06730769     0.84221166     0.42564718
     0.06730769     0.87792595     0.42564718
     0.06730769     0.91364023     0.42564718
     0.06730769     0.94935452     0.42564718
     0.06730769     0.98506880     0.42564718
     0.08653846     0.02078309     0.42564718
     0.08653846     0.05649738     0.42564718
     0.08653846     0.09221166     0.42564718
     0.08653846     0.12792595     0.42564718
     0.08653846     0.16364023     0.42564718
     0.08653846     0.19935452     0.42564718
     0.08653846     0.23506880     0.42564718
     0.08653846     0.27078309     0.42564718
     0.08653846     0.30649738     0.42564718
     0.08653846     0.34221166     0.42564718
     0.08653846     0.37792595     0.42564718
     0.08653846     0.41364023     0.42564718
     0.08653846     0.44935452     0.42564718
     0.08653846     0.48506880     0.42564718
     0.08653846     0.52078309     0.42564718
     0.08653846     0.55649738     0.42564718
     0.08653846     0.59221166     0.42564718
     0.08653846     0.62792595     0.42564718
     0.08653846     0.66364023     0.42564718
     0.08653846     0.69935452     0.42564718
     0.08653846     0.73506880     0.42564718
     0.08653846     0.77078309     0.42564718
     0.08653846     0.80649738     0.42564718
     0.08653846     0.84221166     0.42564718
     0.08653846     0.87792595     0.42564718
     0.08653846     0.91364023     0.42564718
     0.08653846     0.94935452     0.42564718
     0.08653846     0.98506880     0.42564718
     0.10576923     0.02078309     0.42564718
     0.10576923     0.05649738     0.42564718
     0.10576923     0.09221166     0.42564718
     0.10576923     0.12792595     0.42564718
     0.10576923     0.16364023     0.42564718
     0.10576923     0.19935452     0.42564718
     0.10576923     0.23506880     0.42564718
     0.10576923     0.27078309     0.42564718
     0.10576923     0.30649738     0.42564718
     0.10576923     0.34221166     0.42564718
     0.10576923     0.37792595     0.42564718
     0.10576923     0.41364023     0.42564718
     0.10576923     0.44935452     0.42564718
     0.10576923     0.48506880     0.42564718
     0.10576923     0.52078309     0.42564718
     0.10576923     0.55649738     0.42564718
     0.10576923     0.59221166     0.42564718
     0.10576923     0.62792595     0.42564718
     0.10576923     0.66364023     0.42564718
     0.10576923     0.69935452     0.42564718
     0.10576923     0.73506880     0.42564718
     0.10576923     0.77078309     0.42564718
     0.10576923     0.80649738     0.42564718
     0.10576923     0.84221166     0.42564718
     0.10576923     0.87792595     0.42564718
     0.10576923     0.91364023     0.42564718
     0.10576923     0.94935452     0.42564718
     0.10576923     0.98506880     0.42564718
     0.12500000     0.02078309     0.42564718
     0.12500000     0.05649738     0.42564718
     0.12500000     0.09221166     0.42564718
     0.12500000     0.12792595     0.42564718
     0.12500000     0.16364023     0.42564718
     0.12500000     0.19935452     0.42564718
     0.12500000     0.23506880     0.42564718
     0.12500000     0.27078309     0.42564718
     0.12500000     0.30649738     0.42564718
     0.12500000     0.34221166     0.42564718
     0.12500000     0.37792595     0.42564718
     0.12500000     0.41364023     0.42564718
     0.12500000     0.44935452     0.42564718
     0.12500000     0.48506880     0.42564718
     0.12500000     0.52078309     0.42564718
     0.12500000     0.55649738     0.42564718
     0.12500000     0.59221166     0.42564718
     0.12500000     0.62792595     0.42564718
     0.12500000     0.66364023     0.42564718
     0.12500000     0.69935452     0.42564718
     0.12500000     0.73506880     0.42564718
     0.12500000     0.77078309     0.42564718
     0.12500000     0.80649738     0.42564718
     0.12500000     0.84221166     0.42564718
     0.12500000     0.87792595     0.42564718
     0.12500000     0.91364023     0.42564718
     0.12500000     0.94935452     0.42564718
     0.12500000     0.98506880     0.42564718
     0.14423077     0.02078309     0.42564718
     0.14423077     0.05649738     0.42564718
     0.14423077     0.09221166     0.42564718
     0.14423077     0.12792595     0.42564718
     0.14423077     0.16364023     0.42564718
     0.14423077     0.19935452     0.42564718
     0.14423077     0.23506880     0.42564718
     0.14423077     0.27078309     0.42564718
     0.14423077     0.30649738     0.42564718
     0.14423077     0.34221166     0.42564718
     0.14423077     0.37792595     0.42564718
     0.14423077     0.41364023     0.42564718
     0.14423077     0.44935452     0.42564718
     0.14423077     0.48506880     0.42564718
     0.14423077     0.52078309     0.42564718
     0.14423077     0.55649738     0.42564718
     0.14423077     0.59221166     0.42564718
     0.14423077     0.62792595     0.42564718
     0.14423077     0.66364023     0.42564718
     0.14423077     0.69935452     0.42564718
     0.14423077     0.73506880     0.42564718
     0.14423077     0.77078309     0.42564718
     0.14423077     0.80649738     0.42564718
     0.14423077     0.84221166     0.42564718
     0.14423077     0.87792595     0.42564718
     0.14423077     0.91364023     0.42564718
     0.14423077     0.94935452     0.42564718
     0.14423077     0.98506880     0.42564718
     0.16346154     0.02078309     0.42564718
     0.16346154     0.05649738     0.42564718
     0.16346154     0.09221166     0.42564718
     0.16346154     0.12792595     0.42564718
     0.16346154     0.16364023     0.42564718
     0.16346154     0.19935452     0.42564718
     0.16346154     0.23506880     0.42564718
     0.16346154     0.27078309     0.42564718
     0.16346154     0.30649738     0.42564718
     0.16346154     0.34221166     0.42564718
     0.16346154     0.37792595     0.42564718
     0.16346154     0.41364023     0.42564718
     0.16346154     0.44935452     0.42564718
     0.16346154     0.48506880     0.42564718
     0.16346154     0.52078309     0.42564718
     0.16346154     0.55649738     0.42564718
     0.16346154     0.59221166     0.42564718
     0.16346154     0.62792595     0.42564718
     0.16346154     0.66364023     0.42564718
     0.16346154     0.69935452     0.42564718
     0.16346154     0.73506880     0.42564718
     0.16346154     0.77078309     0.42564718
     0.16346154     0.80649738     0.42564718
     0.16346154     0.84221166     0.42564718
     0.16346154     0.87792595     0.42564718
     0.16346154     0.91364023     0.42564718
     0.16346154     0.94935452     0.42564718
     0.16346154     0.98506880     0.42564718
     0.18269231     0.02078309     0.42564718
     0.18269231     0.05649738     0.42564718
     0.18269231     0.09221166     0.42564718
     0.18269231     0.12792595     0.42564718
     0.18269231     0.16364023     0.42564718
     0.18269231     0.19935452     0.42564718
     0.18269231     0.23506880     0.42564718
     0.18269231     0.27078309     0.42564718
     0.18269231     0.30649738     0.42564718
     0.18269231     0.34221166     0.42564718
     0.18269231     0.37792595     0.42564718
     0.18269231     0.41364023     0.42564718
     0.18269231     0.44935452     0.42564718
     0.18269231     0.48506880     0.42564718
     0.18269231     0.52078309     0.42564718
     0.18269231     0.55649738     0.42564718
     0.18269231     0.59221166     0.42564718
     0.18269231     0.62792595     0.42564718
     0.18269231     0.66364023     0.42564718
     0.18269231     0.69935452     0.42564718
     0.18269231     0.73506880     0.42564718
     0.18269231     0.77078309     0.42564718
     0.18269231     0.80649738     0.42564718
     0.18269231     0.84221166     0.42564718
     0.18269231     0.87792595     0.42564718
     0.18269231     0.91364023     0.42564718
     0.18269231     0.94935452     0.42564718
     0.18269231     0.98506880     0.42564718
     0.20192308     0.02078309     0.42564718
     0.20192308     0.05649738     0.42564718
     0.20192308     0.09221166     0.42564718
     0.20192308     0.12792595     0.42564718
     0.20192308     0.16364023     0.42564718
     0.20192308     0.19935452     0.42564718
     0.20192308     0.23506880     0.42564718
     0.20192308     0.27078309     0.42564718
     0.20192308     0.30649738     0.42564718
     0.20192308     0.34221166     0.42564718
     0.20192308     0.37792595     0.42564718
     0.20192308     0.41364023     0.42564718
     0.20192308     0.44935452     0.42564718
     0.20192308     0.48506880     0.42564718
     0.20192308     0.52078309     0.42564718
     0.20192308     0.55649738     0.42564718
     0.20192308     0.59221166     0.42564718
     0.20192308     0.62792595     0.42564718
     0.20192308     0.66364023     0.42564718
     0.20192308     0.69935452     0.42564718
     0.20192308     0.73506880     0.42564718
     0.20192308     0.77078309     0.42564718
     0.20192308     0.80649738     0.42564718
     0.20192308     0.84221166     0.42564718
     0.20192308     0.87792595     0.42564718
     0.20192308     0.91364023     0.42564718
     0.20192308     0.94935452     0.42564718
     0.20192308     0.98506880     0.42564718
     0.22115385     0.02078309     0.42564718
     0.22115385     0.05649738     0.42564718
     0.22115385     0.09221166     0.42564718
     0.22115385     0.12792595     0.42564718
     0.22115385     0.16364023     0.42564718
     0.22115385     0.19935452     0.42564718
     0.22115385     0.23506880     0.42564718
     0.22115385     0.27078309     0.42564718
     0.22115385     0.30649738     0.42564718
     0.22115385     0.34221166     0.42564718
     0.22115385     0.37792595     0.42564718
     0.22115385     0.41364023     0.42564718
     0.22115385     0.44935452     0.42564718
     0.22115385     0.48506880     0.42564718
     0.22115385     0.52078309     0.42564718
     0.22115385     0.55649738     0.42564718
     0.22115385     0.59221166     0.42564718
     0.22115385     0.62792595     0.42564718
     0.22115385     0.66364023     0.42564718
     0.22115385     0.69935452     0.42564718
     0.22115385     0.73506880     0.42564718
     0.22115385     0.77078309     0.42564718
     0.22115385     0.80649738     0.42564718
     0.22115385     0.84221166     0.42564718
     0.22115385     0.87792595     0.42564718
     0.22115385     0.91364023     0.42564718
     0.22115385     0.94935452     0.42564718
     0.22115385     0.98506880     0.42564718
     0.24038462     0.02078309     0.42564718
     0.24038462     0.05649738     0.42564718
     0.24038462     0.09221166     0.42564718
     0.24038462     0.12792595     0.42564718
     0.24038462     0.16364023     0.42564718
     0.24038462     0.19935452     0.42564718
     0.24038462     0.23506880     0.42564718
     0.24038462     0.27078309     0.42564718
     0.24038462     0.30649738     0.42564718
     0.24038462     0.34221166     0.42564718
     0.24038462     0.37792595     0.42564718
     0.24038462     0.41364023     0.42564718
     0.24038462     0.44935452     0.42564718
     0.24038462     0.48506880     0.42564718
     0.24038462     0.52078309     0.42564718
     0.24038462     0.55649738     0.42564718
     0.24038462     0.59221166     0.42564718
     0.24038462     0.62792595     0.42564718
     0.24038462     0.66364023     0.42564718
     0.24038462     0.69935452     0.42564718
     0.24038462     0.73506880     0.42564718
     0.24038462     0.77078309     0.42564718
     0.24038462     0.80649738     0.42564718
     0.24038462     0.84221166     0.42564718
     0.24038462     0.87792595     0.42564718
     0.24038462     0.91364023     0.42564718
     0.24038462     0.94935452     0.42564718
     0.24038462     0.98506880     0.42564718
     0.25961538     0.02078309     0.42564718
     0.25961538     0.05649738     0.42564718
     0.25961538     0.09221166     0.42564718
     0.25961538     0.12792595     0.42564718
     0.25961538     0.16364023     0.42564718
     0.25961538     0.19935452     0.42564718
     0.25961538     0.23506880     0.42564718
     0.25961538     0.27078309     0.42564718
     0.25961538     0.30649738     0.42564718
     0.25961538     0.34221166     0.42564718
     0.25961538     0.37792595     0.42564718
     0.25961538     0.41364023     0.42564718
     0.25961538     0.44935452     0.42564718
     0.25961538     0.48506880     0.42564718
     0.25961538     0.52078309     0.42564718
     0.25961538     0.55649738     0.42564718
     0.25961538     0.59221166     0.42564718
     0.25961538     0.62792595     0.42564718
     0.25961538     0.66364023     0.42564718
     0.25961538     0.69935452     0.42564718
     0.25961538     0.73506880     0.42564718
     0.25961538     0.77078309     0.42564718
     0.25961538     0.80649738     0.42564718
     0.25961538     0.84221166     0.42564718
     0.25961538     0.87792595     0.42564718
     0.25961538     0.91364023     0.42564718
     0.25961538     0.94935452     0.42564718
     0.25961538     0.98506880     0.42564718
     0.27884615     0.02078309     0.42564718
     0.27884615     0.05649738     0.42564718
     0.27884615     0.09221166     0.42564718
     0.27884615     0.12792595     0.42564718
     0.27884615     0.16364023     0.42564718
     0.27884615     0.19935452     0.42564718
     0.27884615     0.23506880     0.42564718
     0.27884615     0.27078309     0.42564718
     0.27884615     0.30649738     0.42564718
     0.27884615     0.34221166     0.42564718
     0.27884615     0.37792595     0.42564718
     0.27884615     0.41364023     0.42564718
     0.27884615     0.44935452     0.42564718
     0.27884615     0.48506880     0.42564718
     0.27884615     0.52078309     0.42564718
     0.27884615     0.55649738     0.42564718
     0.27884615     0.59221166     0.42564718
     0.27884615     0.62792595     0.42564718
     0.27884615     0.66364023     0.42564718
     0.27884615     0.69935452     0.42564718
     0.27884615     0.73506880     0.42564718
     0.27884615     0.77078309     0.42564718
     0.27884615     0.80649738     0.42564718
     0.27884615     0.84221166     0.42564718
     0.27884615     0.87792595     0.42564718
     0.27884615     0.91364023     0.42564718
     0.27884615     0.94935452     0.42564718
     0.27884615     0.98506880     0.42564718
     0.29807692     0.02078309     0.42564718
     0.29807692     0.05649738     0.42564718
     0.29807692     0.09221166     0.42564718
     0.29807692     0.12792595     0.42564718
     0.29807692     0.16364023     0.42564718
     0.29807692     0.19935452     0.42564718
     0.29807692     0.23506880     0.42564718
     0.29807692     0.27078309     0.42564718
     0.29807692     0.30649738     0.42564718
     0.29807692     0.34221166     0.42564718
     0.29807692     0.37792595     0.42564718
     0.29807692     0.41364023     0.42564718
     0.29807692     0.44935452     0.42564718
     0.29807692     0.48506880     0.42564718
     0.29807692     0.52078309     0.42564718
     0.29807692     0.55649738     0.42564718
     0.29807692     0.59221166     0.42564718
     0.29807692     0.62792595     0.42564718
     0.29807692     0.66364023     0.42564718
     0.29807692     0.69935452     0.42564718
     0.29807692     0.73506880     0.42564718
     0.29807692     0.77078309     0.42564718
     0.29807692     0.80649738     0.42564718
     0.29807692     0.84221166     0.42564718
     0.29807692     0.87792595     0.42564718
     0.29807692     0.91364023     0.42564718
     0.29807692     0.94935452     0.42564718
     0.29807692     0.98506880     0.42564718
     0.31730769     0.02078309     0.42564718
     0.31730769     0.05649738     0.42564718
     0.31730769     0.09221166     0.42564718
     0.31730769     0.12792595     0.42564718
     0.31730769     0.16364023     0.42564718
     0.31730769     0.19935452     0.42564718
     0.31730769     0.23506880     0.42564718
     0.31730769     0.27078309     0.42564718
     0.31730769     0.30649738     0.42564718
     0.31730769     0.34221166     0.42564718
     0.31730769     0.37792595     0.42564718
     0.31730769     0.41364023     0.42564718
     0.31730769     0.44935452     0.42564718
     0.31730769     0.48506880     0.42564718
     0.31730769     0.52078309     0.42564718
     0.31730769     0.55649738     0.42564718
     0.31730769     0.59221166     0.42564718
     0.31730769     0.62792595     0.42564718
     0.31730769     0.66364023     0.42564718
     0.31730769     0.69935452     0.42564718
     0.31730769     0.73506880     0.42564718
     0.31730769     0.77078309     0.42564718
     0.31730769     0.80649738     0.42564718
     0.31730769     0.84221166     0.42564718
     0.31730769     0.87792595     0.42564718
     0.31730769     0.91364023     0.42564718
     0.31730769     0.94935452     0.42564718
     0.31730769     0.98506880     0.42564718
     0.33653846     0.02078309     0.42564718
     0.33653846     0.05649738     0.42564718
     0.33653846     0.09221166     0.42564718
     0.33653846     0.12792595     0.42564718
     0.33653846     0.16364023     0.42564718
     0.33653846     0.19935452     0.42564718
     0.33653846     0.23506880     0.42564718
     0.33653846     0.27078309     0.42564718
     0.33653846     0.30649738     0.42564718
     0.33653846     0.34221166     0.42564718
     0.33653846     0.37792595     0.42564718
     0.33653846     0.41364023     0.42564718
     0.33653846     0.44935452     0.42564718
     0.33653846     0.48506880     0.42564718
     0.33653846     0.52078309     0.42564718
     0.33653846     0.55649738     0.42564718
     0.33653846     0.59221166     0.42564718
     0.33653846     0.62792595     0.42564718
     0.33653846     0.66364023     0.42564718
     0.33653846     0.69935452     0.42564718
     0.33653846     0.73506880     0.42564718
     0.33653846     0.77078309     0.42564718
     0.33653846     0.80649738     0.42564718
     0.33653846     0.84221166     0.42564718
     0.33653846     0.87792595     0.42564718
     0.33653846     0.91364023     0.42564718
     0.33653846     0.94935452     0.42564718
     0.33653846     0.98506880     0.42564718
     0.35576923     0.02078309     0.42564718
     0.35576923     0.05649738     0.42564718
     0.35576923     0.09221166     0.42564718
     0.35576923     0.12792595     0.42564718
     0.35576923     0.16364023     0.42564718
     0.35576923     0.19935452     0.42564718
     0.35576923     0.23506880     0.42564718
     0.35576923     0.27078309     0.42564718
     0.35576923     0.30649738     0.42564718
     0.35576923     0.34221166     0.42564718
     0.35576923     0.37792595     0.42564718
     0.35576923     0.41364023     0.42564718
     0.35576923     0.44935452     0.42564718
     0.35576923     0.48506880     0.42564718
     0.35576923     0.52078309     0.42564718
     0.35576923     0.55649738     0.42564718
     0.35576923     0.59221166     0.42564718
     0.35576923     0.62792595     0.42564718
     0.35576923     0.66364023     0.42564718
     0.35576923     0.69935452     0.42564718
     0.35576923     0.73506880     0.42564718
     0.35576923     0.77078309     0.42564718
     0.35576923     0.80649738     0.42564718
     0.35576923     0.84221166     0.42564718
     0.35576923     0.87792595     0.42564718
     0.35576923     0.91364023     0.42564718
     0.35576923     0.94935452     0.42564718
     0.35576923     0.98506880     0.42564718
     0.37500000     0.02078309     0.42564718
     0.37500000     0.05649738     0.42564718
     0.37500000     0.09221166     0.42564718
     0.37500000     0.12792595     0.42564718
     0.37500000     0.16364023     0.42564718
     0.37500000     0.19935452     0.42564718
     0.37500000     0.23506880     0.42564718
     0.37500000     0.27078309     0.42564718
     0.37500000     0.30649738     0.42564718
     0.37500000     0.34221166     0.42564718
     0.37500000     0.37792595     0.42564718
     0.37500000     0.41364023     0.42564718
     0.37500000     0.44935452     0.42564718
     0.37500000     0.48506880     0.42564718
     0.37500000     0.52078309     0.42564718
     0.37500000     0.55649738     0.42564718
     0.37500000     0.59221166     0.42564718
     0.37500000     0.62792595     0.42564718
     0.37500000     0.66364023     0.42564718
     0.37500000     0.69935452     0.42564718
     0.37500000     0.73506880     0.42564718
     0.37500000     0.77078309     0.42564718
     0.37500000     0.80649738     0.42564718
     0.37500000     0.84221166     0.42564718
     0.37500000     0.87792595     0.42564718
     0.37500000     0.91364023     0.42564718
     0.37500000     0.94935452     0.42564718
     0.37500000     0.98506880     0.42564718
     0.39423077     0.02078309     0.42564718
     0.39423077     0.05649738     0.42564718
     0.39423077     0.09221166     0.42564718
     0.39423077     0.12792595     0.42564718
     0.39423077     0.16364023     0.42564718
     0.39423077     0.19935452     0.42564718
     0.39423077     0.23506880     0.42564718
     0.39423077     0.27078309     0.42564718
     0.39423077     0.30649738     0.42564718
     0.39423077     0.34221166     0.42564718
     0.39423077     0.37792595     0.42564718
     0.39423077     0.41364023     0.42564718
     0.39423077     0.44935452     0.42564718
     0.39423077     0.48506880     0.42564718
     0.39423077     0.52078309     0.42564718
     0.39423077     0.55649738     0.42564718
     0.39423077     0.59221166     0.42564718
     0.39423077     0.62792595     0.42564718
     0.39423077     0.66364023     0.42564718
     0.39423077     0.69935452     0.42564718
     0.39423077     0.73506880     0.42564718
     0.39423077     0.77078309     0.42564718
     0.39423077     0.80649738     0.42564718
     0.39423077     0.84221166     0.42564718
     0.39423077     0.87792595     0.42564718
     0.39423077     0.91364023     0.42564718
     0.39423077     0.94935452     0.42564718
     0.39423077     0.98506880     0.42564718
     0.41346154     0.02078309     0.42564718
     0.41346154     0.05649738     0.42564718
     0.41346154     0.09221166     0.42564718
     0.41346154     0.12792595     0.42564718
     0.41346154     0.16364023     0.42564718
     0.41346154     0.19935452     0.42564718
     0.41346154     0.23506880     0.42564718
     0.41346154     0.27078309     0.42564718
     0.41346154     0.30649738     0.42564718
     0.41346154     0.34221166     0.42564718
     0.41346154     0.37792595     0.42564718
     0.41346154     0.41364023     0.42564718
     0.41346154     0.44935452     0.42564718
     0.41346154     0.48506880     0.42564718
     0.41346154     0.52078309     0.42564718
     0.41346154     0.55649738     0.42564718
     0.41346154     0.59221166     0.42564718
     0.41346154     0.62792595     0.42564718
     0.41346154     0.66364023     0.42564718
     0.41346154     0.69935452     0.42564718
     0.41346154     0.73506880     0.42564718
     0.41346154     0.77078309     0.42564718
     0.41346154     0.80649738     0.42564718
     0.41346154     0.84221166     0.42564718
     0.41346154     0.87792595     0.42564718
     0.41346154     0.91364023     0.42564718
     0.41346154     0.94935452     0.42564718
     0.41346154     0.98506880     0.42564718
     0.43269231     0.02078309     0.42564718
     0.43269231     0.05649738     0.42564718
     0.43269231     0.09221166     0.42564718
     0.43269231     0.12792595     0.42564718
     0.43269231     0.16364023     0.42564718
     0.43269231     0.19935452     0.42564718
     0.43269231     0.23506880     0.42564718
     0.43269231     0.27078309     0.42564718
     0.43269231     0.30649738     0.42564718
     0.43269231     0.34221166     0.42564718
     0.43269231     0.37792595     0.42564718
     0.43269231     0.41364023     0.42564718
     0.43269231     0.44935452     0.42564718
     0.43269231     0.48506880     0.42564718
     0.43269231     0.52078309     0.42564718
     0.43269231     0.55649738     0.42564718
     0.43269231     0.59221166     0.42564718
     0.43269231     0.62792595     0.42564718
     0.43269231     0.66364023     0.42564718
     0.43269231     0.69935452     0.42564718
     0.43269231     0.73506880     0.42564718
     0.43269231     0.77078309     0.42564718
     0.43269231     0.80649738     0.42564718
     0.43269231     0.84221166     0.42564718
     0.43269231     0.87792595     0.42564718
     0.43269231     0.91364023     0.42564718
     0.43269231     0.94935452     0.42564718
     0.43269231     0.98506880     0.42564718
     0.45192308     0.02078309     0.42564718
     0.45192308     0.05649738     0.42564718
     0.45192308     0.09221166     0.42564718