Generated by Twist2D
    1.0
      42.86099525       0.00000000       0.00000000
       0.00000000      31.01340430       0.00000000
       0.00000000       0.00000000      20.00000000
    P
    732
Direct
     0.03846154     0.08313236     0.42564718
     0.03846154     0.22598950     0.42564718
     0.03846154     0.36884665     0.42564718
     0.03846154     0.51170379     0.42564718
     0.03846154     0.65456093     0.42564718
     0.03846154     0.79741807     0.42564718
     0.03846154     0.94027522     0.42564718
     0.11538462     0.08313236     0.42564718
     0.11538462     0.22598950     0.42564718
     0.11538462     0.36884665     0.42564718
     0.11538462     0.51170379     0.42564718
     0.11538462     0.65456093     0.42564718
     0.11538462     0.79741807     0.42564718
     0.11538462     0.94027522     0.42564718
     0.19230769     0.08313236     0.42564718
     0.19230769     0.22598950     0.42564718
     0.19230769     0.36884665     0.42564718
     0.19230769     0.51170379     0.42564718
     0.19230769     0.65456093     0.42564718
     0.19230769     0.79741807     0.42564718
     0.19230769     0.94027522     0.42564718
     0.26923077     0.08313236     0.42564718
     0.26923077     0.22598950     0.42564718
     0.26923077     0.36884665     0.42564718
     0.26923077     0.51170379     0.42564718
     0.26923077     0.65456093     0.42564718
     0.26923077     0.79741807     0.42564718
     0.26923077     0.94027522     0.42564718
     0.34615385     0.08313236     0.42564718
     0.34615385     0.22598950     0.42564718
     0.34615385     0.36884665     0.42564718
     0.34615385     0.51170379     0.42564718
     0.34615385     0.65456093     0.42564718
     0.34615385     0.79741807     0.42564718
     0.34615385     0.94027522     0.42564718
     0.42307692     0.08313236     0.42564718
     0.42307692     0.22598950     0.42564718
     0.42307692     0.36884665     0.42564718
     0.42307692     0.51170379     0.42564718
     0.42307692     0.65456093     0.42564718
     0.42307692     0.79741807     0.42564718
     0.42307692     0.94027522     0.42564718
     0.50000000     0.08313236     0.42564718
     0.50000000     0.22598950     0.42564718
     0.50000000     0.36884665     0.42564718
     0.50000000     0.51170379     0.42564718
     0.50000000     0.65456093     0.42564718
     0.50000000     0.79741807     0.42564718
     0.50000000     0.94027522     0.42564718
     0.57692308     0.08313236     0.42564718
     0.57692308     0.22598950     0.42564718
     0.57692308     0.36884665     0.42564718
     0.57692308     0.51170379     0.42564718
     0.57692308     0.65456093     0.42564718
     0.57692308     0.79741807     0.42564718
     0.57692308     0.94027522     0.42564718
     0.65384615     0.08313236     0.42564718
     0.65384615     0.22598950     0.42564718
     0.65384615     0.36884665     0.42564718
     0.65384615     0.51170379     0.42564718
     0.65384615     0.65456093     0.42564718
     0.65384615     0.79741807     0.42564718
     0.65384615     0.94027522     0.42564718
     0.73076923     0.08313236     0.42564718
     0.73076923     0.22598950     0.42564718
     0.73076923     0.36884665     0.42564718
     0.73076923     0.51170379     0.42564718
     0.73076923     0.65456093     0.42564718
     0.73076923     0.79741807     0.42564718
     0.73076923     0.94027522     0.42564718
     0.80769231     0.08313236     0.42564718
     0.80769231     0.22598950     0.42564718
     0.80769231     0.36884665     0.42564718
     0.80769231     0.51170379     0.42564718
     0.80769231     0.65456093     0.42564718
     0.80769231     0.79741807     0.42564718
     0.80769231     0.94027522     0.42564718
     0.88461538     0.08313236     0.42564718
     0.88461538     0.22598950     0.42564718
     0.88461538     0.36884665     0.42564718
     0.88461538     0.51170379     0.42564718
     0.88461538     0.65456093     0.42564718
     0.88461538     0.79741807     0.42564718
     0.88461538     0.94027522     0.42564718
     0.96153846     0.08313236     0.42564718
     0.96153846     0.22598950     0.42564718
     0.96153846     0.36884665     0.42564718
     0.96153846     0.51170379     0.42564718
     0.96153846     0.65456093     0.42564718
     0.96153846     0.79741807     0.42564718
     0.96153846     0.94027522     0.42564718
     0.03846154     0.05964783     0.31941913
     0.03846154     0.20250497     0.31941913
     0.03846154     0.34536211     0.31941913
     0.03846154     0.48821926     0.31941913
     0.03846154     0.63107640     0.31941913
     0.03846154     0.77393354     0.31941913
     0.03846154     0.91679069     0.31941913
     0.11538462     0.05964783     0.31941913
     0.11538462     0.20250497     0.31941913
     0.11538462     0.34536211     0.31941913
     0.11538462     0.48821926     0.31941913
     0.11538462     0.63107640     0.31941913
     0.11538462     0.77393354     0.31941913
     0.11538462     0.91679069     0.31941913
     0.19230769     0.05964783     0.31941913
     0.19230769     0.20250497     0.31941913
     0.19230769     0.34536211     0.31941913
     0.19230769     0.48821926     0.31941913
     0.19230769     0.63107640     0.31941913
     0.19230769     0.77393354     0.31941913
     0.19230769     0.91679069     0.31941913
     0.26923077     0.05964783     0.31941913
     0.26923077     0.20250497     0.31941913
     0.26923077     0.34536211     0.31941913
     0.26923077     0.48821926     0.31941913
     0.26923077     0.63107640     0.31941913
     0.26923077     0.77393354     0.31941913
     0.26923077     0.91679069     0.31941913
     0.34615385     0.05964783     0.31941913
     0.34615385     0.20250497     0.31941913
     0.34615385     0.34536211     0.31941913
     0.34615385     0.48821926     0.31941913
     0.34615385     0.63107640     0.31941913
     0.34615385     0.77393354     0.31941913
     0.34615385     0.91679069     0.31941913
     0.42307692     0.05964783     0.31941913
     0.42307692     0.20250497     0.31941913
     0.42307692     0.34536211     0.31941913
     0.42307692     0.48821926     0.31941913
     0.42307692     0.63107640     0.31941913
     0.42307692     0.77393354     0.31941913
     0.42307692     0.91679069     0.31941913
     0.50000000     0.05964783     0.31941913
     0.50000000     0.20250497     0.31941913
     0.50000000     0.34536211     0.31941913
     0.50000000     0.48821926     0.31941913
     0.50000000     0.63107640     0.31941913
     0.50000000     0.77393354     0.31941913
     0.50000000     0.91679069     0.31941913
     0.57692308     0.05964783     0.31941913
     0.57692308     0.20250497     0.31941913
     0.57692308     0.34536211     0.31941913
     0.57692308     0.48821926     0.31941913
     0.57692308     0.63107640     0.31941913
     0.57692308     0.77393354     0.31941913
     0.57692308     0.91679069     0.31941913
     0.65384615     0.05964783     0.31941913
     0.65384615     0.20250497     0.31941913
     0.65384615     0.34536211     0.31941913
     0.65384615     0.48821926     0.31941913
     0.65384615     0.63107640     0.31941913
     0.65384615     0.77393354     0.31941913
     0.65384615     0.91679069     0.31941913
     0.73076923     0.05964783     0.31941913
     0.73076923     0.20250497     0.31941913
     0.73076923     0.34536211     0.31941913
     0.73076923     0.48821926     0.31941913
     0.73076923     0.63107640     0.31941913
     0.73076923     0.77393354     0.31941913
     0.73076923     0.91679069     0.31941913
     0.80769231     0.05964783     0.31941913
     0.80769231     0.20250497     0.31941913
     0.80769231     0.34536211     0.31941913
     0.80769231     0.48821926     0.31941913
     0.80769231     0.63107640     0.31941913
     0.80769231     0.77393354     0.31941913
     0.80769231     0.91679069     0.31941913
     0.88461538     0.05964783     0.31941913
     0.88461538     0.20250497     0.31941913
     0.88461538     0.34536211     0.31941913
     0.88461538     0.48821926     0.31941913
     0.88461538     0.63107640     0.31941913
     0.88461538     0.77393354     0.31941913
     0.88461538     0.91679069     0.31941913
     0.96153846     0.05964783     0.31941913
     0.96153846     0.20250497     0.31941913
     0.96153846     0.34536211     0.31941913
     0.96153846     0.48821926     0.31941913
     0.96153846     0.63107640     0.31941913
     0.96153846     0.77393354     0.31941913
     0.96153846     0.91679069     0.31941913
     0.07692308     0.01178074     0.31941913
     0.07692308     0.15463789     0.31941913
     0.07692308     0.29749503     0.31941913
     0.07692308     0.44035217     0.31941913
     0.07692308     0.58320932     0.31941913
     0.07692308     0.72606646     0.31941913
     0.07692308     0.86892360     0.31941913
     0.15384615     0.01178074     0.31941913
     0.15384615     0.15463789     0.31941913
     0.15384615     0.29749503     0.31941913
     0.15384615     0.44035217     0.31941913
     0.15384615     0.58320932     0.31941913
     0.15384615     0.72606646     0.31941913
     0.15384615     0.86892360     0.31941913
     0.23076923     0.01178074     0.31941913
     0.23076923     0.15463789     0.31941913
     0.23076923     0.29749503     0.31941913
     0.23076923     0.44035217     0.31941913
     0.23076923     0.58320932     0.31941913
     0.23076923     0.72606646     0.31941913
     0.23076923     0.86892360     0.31941913
     0.30769231     0.01178074     0.31941913
     0.30769231     0.15463789     0.31941913
     0.30769231     0.29749503     0.31941913
     0.30769231     0.44035217     0.31941913
     0.30769231     0.58320932     0.31941913
     0.30769231     0.72606646     0.31941913
     0.30769231     0.86892360     0.31941913
     0.38461538     0.01178074     0.31941913
     0.38461538     0.15463789     0.31941913
     0.38461538     0.29749503     0.31941913
     0.38461538     0.44035217     0.31941913
     0.38461538     0.58320932     0.31941913
     0.38461538     0.72606646     0.31941913
     0.38461538     0.86892360     0.31941913
     0.46153846     0.01178074     0.31941913
     0.46153846     0.15463789     0.31941913
     0.46153846     0.29749503     0.31941913
     0.46153846     0.44035217     0.31941913
     0.46153846     0.58320932     0.31941913
     0.46153846     0.72606646     0.31941913
     0.46153846     0.86892360     0.31941913
     0.53846154     0.01178074     0.31941913
     0.53846154     0.15463789     0.31941913
     0.53846154     0.29749503     0.31941913
     0.53846154     0.44035217     0.31941913
     0.53846154     0.58320932     0.31941913
     0.53846154     0.72606646     0.31941913
     0.53846154     0.86892360     0.31941913
     0.61538462     0.01178074     0.31941913
     0.61538462     0.15463789     0.31941913
     0.61538462     0.29749503     0.31941913
     0.61538462     0.44035217     0.31941913
     0.61538462     0.58320932     0.31941913
     0.61538462     0.72606646     0.31941913
     0.61538462     0.86892360     0.31941913
     0.69230769     0.01178074     0.31941913
     0.69230769     0.15463789     0.31941913
     0.69230769     0.29749503     0.31941913
     0.69230769     0.44035217     0.31941913
     0.69230769     0.58320932     0.31941913
     0.69230769     0.72606646     0.31941913
     0.69230769     0.86892360     0.31941913
     0.76923077     0.01178074     0.31941913
     0.76923077     0.15463789     0.31941913
     0.76923077     0.29749503     0.31941913
     0.76923077     0.44035217     0.31941913
     0.76923077     0.58320932     0.31941913
     0.76923077     0.72606646     0.31941913
     0.76923077     0.86892360     0.31941913
     0.84615385     0.01178074     0.31941913
     0.84615385     0.15463789     0.31941913
     0.84615385     0.29749503     0.31941913
     0.84615385     0.44035217     0.31941913
     0.84615385     0.58320932     0.31941913
     0.84615385     0.72606646     0.31941913
     0.84615385     0.86892360     0.31941913
     0.92307692     0.01178074     0.31941913
     0.92307692     0.15463789     0.31941913
     0.92307692     0.29749503     0.31941913
     0.92307692     0.44035217     0.31941913
     0.92307692     0.58320932     0.31941913
     0.92307692     0.72606646     0.31941913
     0.92307692     0.86892360     0.31941913
     1.00000000     0.01178074     0.31941913
     1.00000000     0.15463789     0.31941913
     1.00000000     0.29749503     0.31941913
     1.00000000     0.44035217     0.31941913
     1.00000000     0.58320932     0.31941913
     1.00000000     0.72606646     0.31941913
     1.00000000     0.86892360     0.31941913
     0.07692308     0.13115335     0.42564718
     0.07692308     0.27401050     0.42564718
     0.07692308     0.41686764     0.42564718
     0.07692308     0.55972478     0.42564718
     0.07692308     0.70258193     0.42564718
     0.07692308     0.84543907     0.42564718
     0.07692308     0.98829621     0.42564718
     0.15384615     0.13115335     0.42564718
     0.15384615     0.27401050     0.42564718
     0.15384615     0.41686764     0.42564718
     0.15384615     0.55972478     0.42564718
     0.15384615     0.70258193     0.42564718
     0.15384615     0.84543907     0.42564718
     0.15384615     0.98829621     0.42564718
     0.23076923     0.13115335     0.42564718
     0.23076923     0.27401050     0.42564718
     0.23076923     0.41686764     0.42564718
     0.23076923     0.55972478     0.42564718
     0.23076923     0.70258193     0.42564718
     0.23076923     0.84543907     0.42564718
     0.23076923     0.98829621     0.42564718
     0.30769231     0.13115335     0.42564718
     0.30769231     0.27401050     0.42564718
     0.30769231     0.41686764     0.42564718
     0.30769231     0.55972478     0.42564718
     0.30769231     0.70258193     0.42564718
     0.30769231     0.84543907     0.42564718
     0.30769231     0.98829621     0.42564718
     0.38461538     0.13115335     0.42564718
     0.38461538     0.27401050     0.42564718
     0.38461538     0.41686764     0.42564718
     0.38461538     0.55972478     0.42564718
     0.38461538     0.70258193     0.42564718
     0.38461538     0.84543907     0.42564718
     0.38461538     0.98829621     0.42564718
     0.46153846     0.13115335     0.42564718
     0.46153846     0.27401050     0.42564718
     0.46153846     0.41686764     0.42564718
     0.46153846     0.55972478     0.42564718
     0.46153846     0.70258193     0.42564718
     0.46153846     0.84543907     0.42564718
     0.46153846     0.98829621     0.42564718
     0.53846154     0.13115335     0.42564718
     0.53846154     0.27401050     0.42564718
     0.53846154     0.41686764     0.42564718
     0.53846154     0.55972478     0.42564718
     0.53846154     0.70258193     0.42564718
     0.53846154     0.84543907     0.42564718
     0.53846154     0.98829621     0.42564718
     0.61538462     0.13115335     0.42564718
     0.61538462     0.27401050     0.42564718
     0.61538462     0.41686764     0.42564718
     0.61538462     0.55972478     0.42564718
     0.61538462     0.70258193     0.42564718
     0.61538462     0.84543907     0.42564718
     0.61538462     0.98829621     0.42564718
     0.69230769     0.13115335     0.42564718
     0.69230769     0.27401050     0.42564718
     0.69230769     0.41686764     0.42564718
     0.69230769     0.55972478     0.42564718
     0.69230769     0.70258193     0.42564718
     0.69230769     0.84543907     0.42564718
     0.69230769     0.98829621     0.42564718
     0.76923077     0.13115335     0.42564718
     0.76923077     0.27401050     0.42564718
     0.76923077     0.41686764     0.42564718
     0.76923077     0.55972478     0.42564718
     0.76923077     0.70258193     0.42564718
     0.76923077     0.84543907     0.42564718
     0.76923077     0.98829621     0.42564718
     0.84615385     0.13115335     0.42564718
     0.84615385     0.27401050     0.42564718
     0.84615385     0.41686764     0.42564718
     0.84615385     0.55972478     0.42564718
     0.84615385     0.70258193     0.42564718
     0.84615385     0.84543907     0.42564718
     0.84615385     0.98829621     0.42564718
     0.92307692     0.13115335     0.42564718
     0.92307692     0.27401050     0.42564718
     0.92307692     0.41686764     0.42564718
     0.92307692     0.55972478     0.42564718
     0.92307692     0.70258193     0.42564718
     0.92307692     0.84543907     0.42564718
     0.92307692     0.98829621     0.42564718
     1.00000000     0.13115335     0.42564718
     1.00000000     0.27401050     0.42564718
     1.00000000     0.41686764     0.42564718
     1.00000000     0.55972478     0.42564718
     1.00000000     0.70258193     0.42564718
     1.00000000     0.84543907     0.42564718
     1.00000000     0.98829621     0.42564718
    -0.00632529     0.08222875     0.68057335
     0.06976167     0.09309831     0.68057335
     0.05889210     0.23440266     0.68057335
     0.04802254     0.37570701     0.68057335
     0.03715297     0.51701136     0.68057335
     0.02628341     0.65831570     0.68057335
     0.01541384     0.79962005     0.68057335
     0.00454428     0.94092440     0.68057335
     0.14584862     0.10396788     0.68057335
     0.13497906     0.24527223     0.68057335
     0.12410949     0.38657657     0.68057335
     0.11323993     0.52788092     0.68057335
     0.10237036     0.66918527     0.68057335
     0.09150080     0.81048962     0.68057335
     0.08063123     0.95179396     0.68057335
     0.22193558     0.11483744     0.68057335
     0.21106602     0.25614179     0.68057335
     0.20019645     0.39744614     0.68057335
     0.18932689     0.53875049     0.68057335
     0.17845732     0.68005483     0.68057335
     0.16758776     0.82135918     0.68057335
     0.15671819     0.96266353     0.68057335
     0.29802254     0.12570701     0.68057335
     0.28715297     0.26701136     0.68057335
     0.27628341     0.40831570     0.68057335
     0.26541384     0.54962005     0.68057335
     0.25454428     0.69092440     0.68057335
     0.24367471     0.83222875     0.68057335
     0.23280515     0.97353310     0.68057335
     0.37410949     0.13657657     0.68057335
     0.36323993     0.27788092     0.68057335
     0.35237036     0.41918527     0.68057335
     0.34150080     0.56048962     0.68057335
     0.33063123     0.70179396     0.68057335
     0.31976167     0.84309831     0.68057335
     0.30889210     0.98440266     0.68057335
     0.45019645     0.14744614     0.68057335
     0.43932689     0.28875049     0.68057335
     0.42845732     0.43005483     0.68057335
     0.41758776     0.57135918     0.68057335
     0.40671819     0.71266353     0.68057335
     0.39584862     0.85396788     0.68057335
     0.38497906     0.99527223     0.68057335
     0.52628341     0.15831570     0.68057335
     0.51541384     0.29962005     0.68057335
     0.50454428     0.44092440     0.68057335
     0.49367471     0.58222875     0.68057335
     0.48280515     0.72353310     0.68057335
     0.47193558     0.86483744     0.68057335
     0.46106602     1.00614179     0.68057335
     0.60237036     0.16918527     0.68057335
     0.59150080     0.31048962     0.68057335
     0.58063123     0.45179396     0.68057335
     0.56976167     0.59309831     0.68057335
     0.55889210     0.73440266     0.68057335
     0.54802254     0.87570701     0.68057335
     0.53715297     1.01701136     0.68057335
     0.67845732     0.18005483     0.68057335
     0.66758776     0.32135918     0.68057335
     0.65671819     0.46266353     0.68057335
     0.64584862     0.60396788     0.68057335
     0.63497906     0.74527223     0.68057335
     0.62410949     0.88657657     0.68057335
     0.61323993     1.02788092     0.68057335
     0.75454428     0.19092440     0.68057335
     0.74367471     0.33222875     0.68057335
     0.73280515     0.47353310     0.68057335
     0.72193558     0.61483744     0.68057335
     0.71106602     0.75614179     0.68057335
     0.70019645     0.89744614     0.68057335
     0.68932689     1.03875049     0.68057335
     0.83063123     0.20179396     0.68057335
     0.81976167     0.34309831     0.68057335
     0.80889210     0.48440266     0.68057335
     0.79802254     0.62570701     0.68057335
     0.78715297     0.76701136     0.68057335
     0.77628341     0.90831570     0.68057335
     0.76541384     1.04962005     0.68057335
     0.90671819     0.21266353     0.68057335
     0.89584862     0.35396788     0.68057335
     0.88497906     0.49527223     0.68057335
     0.87410949     0.63657657     0.68057335
     0.86323993     0.77788092     0.68057335
     0.85237036     0.91918527     0.68057335
     0.84150080     1.06048962     0.68057335
     0.98280515     0.22353310     0.68057335
     0.97193558     0.36483744     0.68057335
     0.96106602     0.50614179     0.68057335
     0.95019645     0.64744614     0.68057335
     0.93932689     0.78875049     0.68057335
     0.92845732     0.93005483     0.68057335
     0.91758776     1.07135918     0.68057335
    -0.00453842     0.05899948     0.57434529
     0.07154853     0.06986905     0.57434529
     0.06067897     0.21117340     0.57434529
     0.04980940     0.35247774     0.57434529
     0.03893984     0.49378209     0.57434529
     0.02807027     0.63508644     0.57434529
     0.01720071     0.77639079     0.57434529
     0.00633114     0.91769513     0.57434529
     0.14763549     0.08073861     0.57434529
     0.13676593     0.22204296     0.57434529
     0.12589636     0.36334731     0.57434529
     0.11502680     0.50465166     0.57434529
     0.10415723     0.64595600     0.57434529
     0.09328767     0.78726035     0.57434529
     0.08241810     0.92856470     0.57434529
     0.22372245     0.09160818     0.57434529
     0.21285288     0.23291253     0.57434529
     0.20198332     0.37421687     0.57434529
     0.19111375     0.51552122     0.57434529
     0.18024419     0.65682557     0.57434529
     0.16937462     0.79812992     0.57434529
     0.15850506     0.93943426     0.57434529
     0.29980940     0.10247774     0.57434529
     0.28893984     0.24378209     0.57434529
     0.27807027     0.38508644     0.57434529
     0.26720071     0.52639079     0.57434529
     0.25633114     0.66769513     0.57434529
     0.24546158     0.80899948     0.57434529
     0.23459201     0.95030383     0.57434529
     0.37589636     0.11334731     0.57434529
     0.36502680     0.25465166     0.57434529
     0.35415723     0.39595600     0.57434529
     0.34328767     0.53726035     0.57434529
     0.33241810     0.67856470     0.57434529
     0.32154853     0.81986905     0.57434529
     0.31067897     0.96117340     0.57434529
     0.45198332     0.12421687     0.57434529
     0.44111375     0.26552122     0.57434529
     0.43024419     0.40682557     0.57434529
     0.41937462     0.54812992     0.57434529
     0.40850506     0.68943426     0.57434529
     0.39763549     0.83073861     0.57434529
     0.38676593     0.97204296     0.57434529
     0.52807027     0.13508644     0.57434529
     0.51720071     0.27639079     0.57434529
     0.50633114     0.41769513     0.57434529
     0.49546158     0.55899948     0.57434529
     0.48459201     0.70030383     0.57434529
     0.47372245     0.84160818     0.57434529
     0.46285288     0.98291253     0.57434529
     0.60415723     0.14595600     0.57434529
     0.59328767     0.28726035     0.57434529
     0.58241810     0.42856470     0.57434529
     0.57154853     0.56986905     0.57434529
     0.56067897     0.71117340     0.57434529
     0.54980940     0.85247774     0.57434529
     0.53893984     0.99378209     0.57434529
     0.68024419     0.15682557     0.57434529
     0.66937462     0.29812992     0.57434529
     0.65850506     0.43943426     0.57434529
     0.64763549     0.58073861     0.57434529
     0.63676593     0.72204296     0.57434529
     0.62589636     0.86334731     0.57434529
     0.61502680     1.00465166     0.57434529
     0.75633114     0.16769513     0.57434529
     0.74546158     0.30899948     0.57434529
     0.73459201     0.45030383     0.57434529
     0.72372245     0.59160818     0.57434529
     0.71285288     0.73291253     0.57434529
     0.70198332     0.87421687     0.57434529
     0.69111375     1.01552122     0.57434529
     0.83241810     0.17856470     0.57434529
     0.82154853     0.31986905     0.57434529
     0.81067897     0.46117340     0.57434529
     0.79980940     0.60247774     0.57434529
     0.78893984     0.74378209     0.57434529
     0.77807027     0.88508644     0.57434529
     0.76720071     1.02639079     0.57434529
     0.90850506     0.18943426     0.57434529
     0.89763549     0.33073861     0.57434529
     0.88676593     0.47204296     0.57434529
     0.87589636     0.61334731     0.57434529
     0.86502680     0.75465166     0.57434529
     0.85415723     0.89595600     0.57434529
     0.84328767     1.03726035     0.57434529
     0.98459201     0.20030383     0.57434529
     0.97372245     0.34160818     0.57434529
     0.96285288     0.48291253     0.57434529
     0.95198332     0.62421687     0.57434529
     0.94111375     0.76552122     0.57434529
     0.93024419     0.90682557     0.57434529
     0.91937462     1.04812992     0.57434529
     0.03714712     0.01708748     0.57434529
     0.11323407     0.02795704     0.57434529
     0.10236451     0.16926139     0.57434529
     0.09149494     0.31056574     0.57434529
     0.08062538     0.45187008     0.57434529
     0.06975581     0.59317443     0.57434529
     0.05888625     0.73447878     0.57434529
     0.04801668     0.87578313     0.57434529
     0.18932103     0.03882661     0.57434529
     0.17845147     0.18013095     0.57434529
     0.16758190     0.32143530     0.57434529
     0.15671233     0.46273965     0.57434529
     0.14584277     0.60404400     0.57434529
     0.13497320     0.74534835     0.57434529
     0.12410364     0.88665269     0.57434529
     0.26540799     0.04969617     0.57434529
     0.25453842     0.19100052     0.57434529
     0.24366886     0.33230487     0.57434529
     0.23279929     0.47360921     0.57434529
     0.22192973     0.61491356     0.57434529
     0.21106016     0.75621791     0.57434529
     0.20019060     0.89752226     0.57434529
     0.34149494     0.06056574     0.57434529
     0.33062538     0.20187008     0.57434529
     0.31975581     0.34317443     0.57434529
     0.30888625     0.48447878     0.57434529
     0.29801668     0.62578313     0.57434529
     0.28714712     0.76708748     0.57434529
     0.27627755     0.90839182     0.57434529
     0.41758190     0.07143530     0.57434529
     0.40671233     0.21273965     0.57434529
     0.39584277     0.35404400     0.57434529
     0.38497320     0.49534835     0.57434529
     0.37410364     0.63665269     0.57434529
     0.36323407     0.77795704     0.57434529
     0.35236451     0.91926139     0.57434529
     0.49366886     0.08230487     0.57434529
     0.48279929     0.22360921     0.57434529
     0.47192973     0.36491356     0.57434529
     0.46106016     0.50621791     0.57434529
     0.45019060     0.64752226     0.57434529
     0.43932103     0.78882661     0.57434529
     0.42845147     0.93013095     0.57434529
     0.56975581     0.09317443     0.57434529
     0.55888625     0.23447878     0.57434529
     0.54801668     0.37578313     0.57434529
     0.53714712     0.51708748     0.57434529
     0.52627755     0.65839182     0.57434529
     0.51540799     0.79969617     0.57434529
     0.50453842     0.94100052     0.57434529
     0.64584277     0.10404400     0.57434529
     0.63497320     0.24534835     0.57434529
     0.62410364     0.38665269     0.57434529
     0.61323407     0.52795704     0.57434529
     0.60236451     0.66926139     0.57434529
     0.59149494     0.81056574     0.57434529
     0.58062538     0.95187008     0.57434529
     0.72192973     0.11491356     0.57434529
     0.71106016     0.25621791     0.57434529
     0.70019060     0.39752226     0.57434529
     0.68932103     0.53882661     0.57434529
     0.67845147     0.68013095     0.57434529
     0.66758190     0.82143530     0.57434529
     0.65671233     0.96273965     0.57434529
     0.79801668     0.12578313     0.57434529
     0.78714712     0.26708748     0.57434529
     0.77627755     0.40839182     0.57434529
     0.76540799     0.54969617     0.57434529
     0.75453842     0.69100052     0.57434529
     0.74366886     0.83230487     0.57434529
     0.73279929     0.97360921     0.57434529
     0.87410364     0.13665269     0.57434529
     0.86323407     0.27795704     0.57434529
     0.85236451     0.41926139     0.57434529
     0.84149494     0.56056574     0.57434529
     0.83062538     0.70187008     0.57434529
     0.81975581     0.84317443     0.57434529
     0.80888625     0.98447878     0.57434529
     0.95019060     0.14752226     0.57434529
     0.93932103     0.28882661     0.57434529
     0.92845147     0.43013095     0.57434529
     0.91758190     0.57143530     0.57434529
     0.90671233     0.71273965     0.57434529
     0.89584277     0.85404400     0.57434529
     0.88497320     0.99534835     0.57434529
     1.02627755     0.15839182     0.57434529
     1.01540799     0.29969617     0.57434529
     1.00453842     0.44100052     0.57434529
     0.99366886     0.58230487     0.57434529
     0.98279929     0.72360921     0.57434529
     0.97192973     0.86491356     0.57434529
     0.96106016     1.00621791     0.57434529
     0.02806442     0.13516256     0.68057335
     0.10415138     0.14603212     0.68057335
     0.09328181     0.28733647     0.68057335
     0.08241224     0.42864082     0.68057335
     0.07154268     0.56994517     0.68057335
     0.06067311     0.71124951     0.68057335
     0.04980355     0.85255386     0.68057335