Generated by Twist2D
    1.0
     151.66198321       0.00000000       0.00000000
       0.00000000     110.76215822       0.00000000
       0.00000000       0.00000000      20.00000000
    P
    9204
Direct
     0.01086957     0.02327706     0.42564718
     0.01086957     0.06327706     0.42564718
     0.01086957     0.10327706     0.42564718
     0.01086957     0.14327706     0.42564718
     0.01086957     0.18327706     0.42564718
     0.01086957     0.22327706     0.42564718
     0.01086957     0.26327706     0.42564718
     0.01086957     0.30327706     0.42564718
     0.01086957     0.34327706     0.42564718
     0.01086957     0.38327706     0.42564718
     0.01086957     0.42327706     0.42564718
     0.01086957     0.46327706     0.42564718
     0.01086957     0.50327706     0.42564718
     0.01086957     0.54327706     0.42564718
     0.01086957     0.58327706     0.42564718
     0.01086957     0.62327706     0.42564718
     0.01086957     0.66327706     0.42564718
     0.01086957     0.70327706     0.42564718
     0.01086957     0.74327706     0.42564718
     0.01086957     0.78327706     0.42564718
     0.01086957     0.82327706     0.42564718
     0.01086957     0.86327706     0.42564718
     0.01086957     0.90327706     0.42564718
     0.01086957     0.94327706     0.42564718
     0.01086957     0.98327706     0.42564718
     0.03260870     0.02327706     0.42564718
     0.03260870     0.06327706     0.42564718
     0.03260870     0.10327706     0.42564718
     0.03260870     0.14327706     0.42564718
     0.03260870     0.18327706     0.42564718
     0.03260870     0.22327706     0.42564718
     0.03260870     0.26327706     0.42564718
     0.03260870     0.30327706     0.42564718
     0.03260870     0.34327706     0.42564718
     0.03260870     0.38327706     0.42564718
     0.03260870     0.42327706     0.42564718
     0.03260870     0.46327706     0.42564718
     0.03260870     0.50327706     0.42564718
     0.03260870     0.54327706     0.42564718
     0.03260870     0.58327706     0.42564718
     0.03260870     0.62327706     0.42564718
     0.03260870     0.66327706     0.42564718
     0.03260870     0.70327706     0.42564718
     0.03260870     0.74327706     0.42564718
     0.03260870     0.78327706     0.42564718
     0.03260870     0.82327706     0.42564718
     0.03260870     0.86327706     0.42564718
     0.03260870     0.90327706     0.42564718
     0.03260870     0.94327706     0.42564718
     0.03260870     0.98327706     0.42564718
     0.05434783     0.02327706     0.42564718
     0.05434783     0.06327706     0.42564718
     0.05434783     0.10327706     0.42564718
     0.05434783     0.14327706     0.42564718
     0.05434783     0.18327706     0.42564718
     0.05434783     0.22327706     0.42564718
     0.05434783     0.26327706     0.42564718
     0.05434783     0.30327706     0.42564718
     0.05434783     0.34327706     0.42564718
     0.05434783     0.38327706     0.42564718
     0.05434783     0.42327706     0.42564718
     0.05434783     0.46327706     0.42564718
     0.05434783     0.50327706     0.42564718
     0.05434783     0.54327706     0.42564718
     0.05434783     0.58327706     0.42564718
     0.05434783     0.62327706     0.42564718
     0.05434783     0.66327706     0.42564718
     0.05434783     0.70327706     0.42564718
     0.05434783     0.74327706     0.42564718
     0.05434783     0.78327706     0.42564718
     0.05434783     0.82327706     0.42564718
     0.05434783     0.86327706     0.42564718
     0.05434783     0.90327706     0.42564718
     0.05434783     0.94327706     0.42564718
     0.05434783     0.98327706     0.42564718
     0.07608696     0.02327706     0.42564718
     0.07608696     0.06327706     0.42564718
     0.07608696     0.10327706     0.42564718
     0.07608696     0.14327706     0.42564718
     0.07608696     0.18327706     0.42564718
     0.07608696     0.22327706     0.42564718
     0.07608696     0.26327706     0.42564718
     0.07608696     0.30327706     0.42564718
     0.07608696     0.34327706     0.42564718
     0.07608696     0.38327706     0.42564718
     0.07608696     0.42327706     0.42564718
     0.07608696     0.46327706     0.42564718
     0.07608696     0.50327706     0.42564718
     0.07608696     0.54327706     0.42564718
     0.07608696     0.58327706     0.42564718
     0.07608696     0.62327706     0.42564718
     0.07608696     0.66327706     0.42564718
     0.07608696     0.70327706     0.42564718
     0.07608696     0.74327706     0.42564718
     0.07608696     0.78327706     0.42564718
     0.07608696     0.82327706     0.42564718
     0.07608696     0.86327706     0.42564718
     0.07608696     0.90327706     0.42564718
     0.07608696     0.94327706     0.42564718
     0.07608696     0.98327706     0.42564718
     0.09782609     0.02327706     0.42564718
     0.09782609     0.06327706     0.42564718
     0.09782609     0.10327706     0.42564718
     0.09782609     0.14327706     0.42564718
     0.09782609     0.18327706     0.42564718
     0.09782609     0.22327706     0.42564718
     0.09782609     0.26327706     0.42564718
     0.09782609     0.30327706     0.42564718
     0.09782609     0.34327706     0.42564718
     0.09782609     0.38327706     0.42564718
     0.09782609     0.42327706     0.42564718
     0.09782609     0.46327706     0.42564718
     0.09782609     0.50327706     0.42564718
     0.09782609     0.54327706     0.42564718
     0.09782609     0.58327706     0.42564718
     0.09782609     0.62327706     0.42564718
     0.09782609     0.66327706     0.42564718
     0.09782609     0.70327706     0.42564718
     0.09782609     0.74327706     0.42564718
     0.09782609     0.78327706     0.42564718
     0.09782609     0.82327706     0.42564718
     0.09782609     0.86327706     0.42564718
     0.09782609     0.90327706     0.42564718
     0.09782609     0.94327706     0.42564718
     0.09782609     0.98327706     0.42564718
     0.11956522     0.02327706     0.42564718
     0.11956522     0.06327706     0.42564718
     0.11956522     0.10327706     0.42564718
     0.11956522     0.14327706     0.42564718
     0.11956522     0.18327706     0.42564718
     0.11956522     0.22327706     0.42564718
     0.11956522     0.26327706     0.42564718
     0.11956522     0.30327706     0.42564718
     0.11956522     0.34327706     0.42564718
     0.11956522     0.38327706     0.42564718
     0.11956522     0.42327706     0.42564718
     0.11956522     0.46327706     0.42564718
     0.11956522     0.50327706     0.42564718
     0.11956522     0.54327706     0.42564718
     0.11956522     0.58327706     0.42564718
     0.11956522     0.62327706     0.42564718
     0.11956522     0.66327706     0.42564718
     0.11956522     0.70327706     0.42564718
     0.11956522     0.74327706     0.42564718
     0.11956522     0.78327706     0.42564718
     0.11956522     0.82327706     0.42564718
     0.11956522     0.86327706     0.42564718
     0.11956522     0.90327706     0.42564718
     0.11956522     0.94327706     0.42564718
     0.11956522     0.98327706     0.42564718
     0.14130435     0.02327706     0.42564718
     0.14130435     0.06327706     0.42564718
     0.14130435     0.10327706     0.42564718
     0.14130435     0.14327706     0.42564718
     0.14130435     0.18327706     0.42564718
     0.14130435     0.22327706     0.42564718
     0.14130435     0.26327706     0.42564718
     0.14130435     0.30327706     0.42564718
     0.14130435     0.34327706     0.42564718
     0.14130435     0.38327706     0.42564718
     0.14130435     0.42327706     0.42564718
     0.14130435     0.46327706     0.42564718
     0.14130435     0.50327706     0.42564718
     0.14130435     0.54327706     0.42564718
     0.14130435     0.58327706     0.42564718
     0.14130435     0.62327706     0.42564718
     0.14130435     0.66327706     0.42564718
     0.14130435     0.70327706     0.42564718
     0.14130435     0.74327706     0.42564718
     0.14130435     0.78327706     0.42564718
     0.14130435     0.82327706     0.42564718
     0.14130435     0.86327706     0.42564718
     0.14130435     0.90327706     0.42564718
     0.14130435     0.94327706     0.42564718
     0.14130435     0.98327706     0.42564718
     0.16304348     0.02327706     0.42564718
     0.16304348     0.06327706     0.42564718
     0.16304348     0.10327706     0.42564718
     0.16304348     0.14327706     0.42564718
     0.16304348     0.18327706     0.42564718
     0.16304348     0.22327706     0.42564718
     0.16304348     0.26327706     0.42564718
     0.16304348     0.30327706     0.42564718
     0.16304348     0.34327706     0.42564718
     0.16304348     0.38327706     0.42564718
     0.16304348     0.42327706     0.42564718
     0.16304348     0.46327706     0.42564718
     0.16304348     0.50327706     0.42564718
     0.16304348     0.54327706     0.42564718
     0.16304348     0.58327706     0.42564718
     0.16304348     0.62327706     0.42564718
     0.16304348     0.66327706     0.42564718
     0.16304348     0.70327706     0.42564718
     0.16304348     0.74327706     0.42564718
     0.16304348     0.78327706     0.42564718
     0.16304348     0.82327706     0.42564718
     0.16304348     0.86327706     0.42564718
     0.16304348     0.90327706     0.42564718
     0.16304348     0.94327706     0.42564718
     0.16304348     0.98327706     0.42564718
     0.18478261     0.02327706     0.42564718
     0.18478261     0.06327706     0.42564718
     0.18478261     0.10327706     0.42564718
     0.18478261     0.14327706     0.42564718
     0.18478261     0.18327706     0.42564718
     0.18478261     0.22327706     0.42564718
     0.18478261     0.26327706     0.42564718
     0.18478261     0.30327706     0.42564718
     0.18478261     0.34327706     0.42564718
     0.18478261     0.38327706     0.42564718
     0.18478261     0.42327706     0.42564718
     0.18478261     0.46327706     0.42564718
     0.18478261     0.50327706     0.42564718
     0.18478261     0.54327706     0.42564718
     0.18478261     0.58327706     0.42564718
     0.18478261     0.62327706     0.42564718
     0.18478261     0.66327706     0.42564718
     0.18478261     0.70327706     0.42564718
     0.18478261     0.74327706     0.42564718
     0.18478261     0.78327706     0.42564718
     0.18478261     0.82327706     0.42564718
     0.18478261     0.86327706     0.42564718
     0.18478261     0.90327706     0.42564718
     0.18478261     0.94327706     0.42564718
     0.18478261     0.98327706     0.42564718
     0.20652174     0.02327706     0.42564718
     0.20652174     0.06327706     0.42564718
     0.20652174     0.10327706     0.42564718
     0.20652174     0.14327706     0.42564718
     0.20652174     0.18327706     0.42564718
     0.20652174     0.22327706     0.42564718
     0.20652174     0.26327706     0.42564718
     0.20652174     0.30327706     0.42564718
     0.20652174     0.34327706     0.42564718
     0.20652174     0.38327706     0.42564718
     0.20652174     0.42327706     0.42564718
     0.20652174     0.46327706     0.42564718
     0.20652174     0.50327706     0.42564718
     0.20652174     0.54327706     0.42564718
     0.20652174     0.58327706     0.42564718
     0.20652174     0.62327706     0.42564718
     0.20652174     0.66327706     0.42564718
     0.20652174     0.70327706     0.42564718
     0.20652174     0.74327706     0.42564718
     0.20652174     0.78327706     0.42564718
     0.20652174     0.82327706     0.42564718
     0.20652174     0.86327706     0.42564718
     0.20652174     0.90327706     0.42564718
     0.20652174     0.94327706     0.42564718
     0.20652174     0.98327706     0.42564718
     0.22826087     0.02327706     0.42564718
     0.22826087     0.06327706     0.42564718
     0.22826087     0.10327706     0.42564718
     0.22826087     0.14327706     0.42564718
     0.22826087     0.18327706     0.42564718
     0.22826087     0.22327706     0.42564718
     0.22826087     0.26327706     0.42564718
     0.22826087     0.30327706     0.42564718
     0.22826087     0.34327706     0.42564718
     0.22826087     0.38327706     0.42564718
     0.22826087     0.42327706     0.42564718
     0.22826087     0.46327706     0.42564718
     0.22826087     0.50327706     0.42564718
     0.22826087     0.54327706     0.42564718
     0.22826087     0.58327706     0.42564718
     0.22826087     0.62327706     0.42564718
     0.22826087     0.66327706     0.42564718
     0.22826087     0.70327706     0.42564718
     0.22826087     0.74327706     0.42564718
     0.22826087     0.78327706     0.42564718
     0.22826087     0.82327706     0.42564718
     0.22826087     0.86327706     0.42564718
     0.22826087     0.90327706     0.42564718
     0.22826087     0.94327706     0.42564718
     0.22826087     0.98327706     0.42564718
     0.25000000     0.02327706     0.42564718
     0.25000000     0.06327706     0.42564718
     0.25000000     0.10327706     0.42564718
     0.25000000     0.14327706     0.42564718
     0.25000000     0.18327706     0.42564718
     0.25000000     0.22327706     0.42564718
     0.25000000     0.26327706     0.42564718
     0.25000000     0.30327706     0.42564718
     0.25000000     0.34327706     0.42564718
     0.25000000     0.38327706     0.42564718
     0.25000000     0.42327706     0.42564718
     0.25000000     0.46327706     0.42564718
     0.25000000     0.50327706     0.42564718
     0.25000000     0.54327706     0.42564718
     0.25000000     0.58327706     0.42564718
     0.25000000     0.62327706     0.42564718
     0.25000000     0.66327706     0.42564718
     0.25000000     0.70327706     0.42564718
     0.25000000     0.74327706     0.42564718
     0.25000000     0.78327706     0.42564718
     0.25000000     0.82327706     0.42564718
     0.25000000     0.86327706     0.42564718
     0.25000000     0.90327706     0.42564718
     0.25000000     0.94327706     0.42564718
     0.25000000     0.98327706     0.42564718
     0.27173913     0.02327706     0.42564718
     0.27173913     0.06327706     0.42564718
     0.27173913     0.10327706     0.42564718
     0.27173913     0.14327706     0.42564718
     0.27173913     0.18327706     0.42564718
     0.27173913     0.22327706     0.42564718
     0.27173913     0.26327706     0.42564718
     0.27173913     0.30327706     0.42564718
     0.27173913     0.34327706     0.42564718
     0.27173913     0.38327706     0.42564718
     0.27173913     0.42327706     0.42564718
     0.27173913     0.46327706     0.42564718
     0.27173913     0.50327706     0.42564718
     0.27173913     0.54327706     0.42564718
     0.27173913     0.58327706     0.42564718
     0.27173913     0.62327706     0.42564718
     0.27173913     0.66327706     0.42564718
     0.27173913     0.70327706     0.42564718
     0.27173913     0.74327706     0.42564718
     0.27173913     0.78327706     0.42564718
     0.27173913     0.82327706     0.42564718
     0.27173913     0.86327706     0.42564718
     0.27173913     0.90327706     0.42564718
     0.27173913     0.94327706     0.42564718
     0.27173913     0.98327706     0.42564718
     0.29347826     0.02327706     0.42564718
     0.29347826     0.06327706     0.42564718
     0.29347826     0.10327706     0.42564718
     0.29347826     0.14327706     0.42564718
     0.29347826     0.18327706     0.42564718
     0.29347826     0.22327706     0.42564718
     0.29347826     0.26327706     0.42564718
     0.29347826     0.30327706     0.42564718
     0.29347826     0.34327706     0.42564718
     0.29347826     0.38327706     0.42564718
     0.29347826     0.42327706     0.42564718
     0.29347826     0.46327706     0.42564718
     0.29347826     0.50327706     0.42564718
     0.29347826     0.54327706     0.42564718
     0.29347826     0.58327706     0.42564718
     0.29347826     0.62327706     0.42564718
     0.29347826     0.66327706     0.42564718
     0.29347826     0.70327706     0.42564718
     0.29347826     0.74327706     0.42564718
     0.29347826     0.78327706     0.42564718
     0.29347826     0.82327706     0.42564718
     0.29347826     0.86327706     0.42564718
     0.29347826     0.90327706     0.42564718
     0.29347826     0.94327706     0.42564718
     0.29347826     0.98327706     0.42564718
     0.31521739     0.02327706     0.42564718
     0.31521739     0.06327706     0.42564718
     0.31521739     0.10327706     0.42564718
     0.31521739     0.14327706     0.42564718
     0.31521739     0.18327706     0.42564718
     0.31521739     0.22327706     0.42564718
     0.31521739     0.26327706     0.42564718
     0.31521739     0.30327706     0.42564718
     0.31521739     0.34327706     0.42564718
     0.31521739     0.38327706     0.42564718
     0.31521739     0.42327706     0.42564718
     0.31521739     0.46327706     0.42564718
     0.31521739     0.50327706     0.42564718
     0.31521739     0.54327706     0.42564718
     0.31521739     0.58327706     0.42564718
     0.31521739     0.62327706     0.42564718
     0.31521739     0.66327706     0.42564718
     0.31521739     0.70327706     0.42564718
     0.31521739     0.74327706     0.42564718
     0.31521739     0.78327706     0.42564718
     0.31521739     0.82327706     0.42564718
     0.31521739     0.86327706     0.42564718
     0.31521739     0.90327706     0.42564718
     0.31521739     0.94327706     0.42564718
     0.31521739     0.98327706     0.42564718
     0.33695652     0.02327706     0.42564718
     0.33695652     0.06327706     0.42564718
     0.33695652     0.10327706     0.42564718
     0.33695652     0.14327706     0.42564718
     0.33695652     0.18327706     0.42564718
     0.33695652     0.22327706     0.42564718
     0.33695652     0.26327706     0.42564718
     0.33695652     0.30327706     0.42564718
     0.33695652     0.34327706     0.42564718
     0.33695652     0.38327706     0.42564718
     0.33695652     0.42327706     0.42564718
     0.33695652     0.46327706     0.42564718
     0.33695652     0.50327706     0.42564718
     0.33695652     0.54327706     0.42564718
     0.33695652     0.58327706     0.42564718
     0.33695652     0.62327706     0.42564718
     0.33695652     0.66327706     0.42564718
     0.33695652     0.70327706     0.42564718
     0.33695652     0.74327706     0.42564718
     0.33695652     0.78327706     0.42564718
     0.33695652     0.82327706     0.42564718
     0.33695652     0.86327706     0.42564718
     0.33695652     0.90327706     0.42564718
     0.33695652     0.94327706     0.42564718
     0.33695652     0.98327706     0.42564718
     0.35869565     0.02327706     0.42564718
     0.35869565     0.06327706     0.42564718
     0.35869565     0.10327706     0.42564718
     0.35869565     0.14327706     0.42564718
     0.35869565     0.18327706     0.42564718
     0.35869565     0.22327706     0.42564718
     0.35869565     0.26327706     0.42564718
     0.35869565     0.30327706     0.42564718
     0.35869565     0.34327706     0.42564718
     0.35869565     0.38327706     0.42564718
     0.35869565     0.42327706     0.42564718
     0.35869565     0.46327706     0.42564718
     0.35869565     0.50327706     0.42564718
     0.35869565     0.54327706     0.42564718
     0.35869565     0.58327706     0.42564718
     0.35869565     0.62327706     0.42564718
     0.35869565     0.66327706     0.42564718
     0.35869565     0.70327706     0.42564718
     0.35869565     0.74327706     0.42564718
     0.35869565     0.78327706     0.42564718
     0.35869565     0.82327706     0.42564718
     0.35869565     0.86327706     0.42564718
     0.35869565     0.90327706     0.42564718
     0.35869565     0.94327706     0.42564718
     0.35869565     0.98327706     0.42564718
     0.38043478     0.02327706     0.42564718
     0.38043478     0.06327706     0.42564718
     0.38043478     0.10327706     0.42564718
     0.38043478     0.14327706     0.42564718
     0.38043478     0.18327706     0.42564718
     0.38043478     0.22327706     0.42564718
     0.38043478     0.26327706     0.42564718
     0.38043478     0.30327706     0.42564718
     0.38043478     0.34327706     0.42564718
     0.38043478     0.38327706     0.42564718
     0.38043478     0.42327706     0.42564718
     0.38043478     0.46327706     0.42564718
     0.38043478     0.50327706     0.42564718
     0.38043478     0.54327706     0.42564718
     0.38043478     0.58327706     0.42564718
     0.38043478     0.62327706     0.42564718
     0.38043478     0.66327706     0.42564718
     0.38043478     0.70327706     0.42564718
     0.38043478     0.74327706     0.42564718
     0.38043478     0.78327706     0.42564718
     0.38043478     0.82327706     0.42564718
     0.38043478     0.86327706     0.42564718
     0.38043478     0.90327706     0.42564718
     0.38043478     0.94327706     0.42564718
     0.38043478     0.98327706     0.42564718
     0.40217391     0.02327706     0.42564718
     0.40217391     0.06327706     0.42564718
     0.40217391     0.10327706     0.42564718
     0.40217391     0.14327706     0.42564718
     0.40217391     0.18327706     0.42564718
     0.40217391     0.22327706     0.42564718
     0.40217391     0.26327706     0.42564718
     0.40217391     0.30327706     0.42564718
     0.40217391     0.34327706     0.42564718
     0.40217391     0.38327706     0.42564718
     0.40217391     0.42327706     0.42564718
     0.40217391     0.46327706     0.42564718
     0.40217391     0.50327706     0.42564718
     0.40217391     0.54327706     0.42564718
     0.40217391     0.58327706     0.42564718
     0.40217391     0.62327706     0.42564718
     0.40217391     0.66327706     0.42564718
     0.40217391     0.70327706     0.42564718
     0.40217391     0.74327706     0.42564718
     0.40217391     0.78327706     0.42564718
     0.40217391     0.82327706     0.42564718
     0.40217391     0.86327706     0.42564718
     0.40217391     0.90327706     0.42564718
     0.40217391     0.94327706     0.42564718
     0.40217391     0.98327706     0.42564718
     0.42391304     0.02327706     0.42564718
     0.42391304     0.06327706     0.42564718
     0.42391304     0.10327706     0.42564718
     0.42391304     0.14327706     0.42564718
     0.42391304     0.18327706     0.42564718
     0.42391304     0.22327706     0.42564718
     0.42391304     0.26327706     0.42564718
     0.42391304     0.30327706     0.42564718
     0.42391304     0.34327706     0.42564718
     0.42391304     0.38327706     0.42564718
     0.42391304     0.42327706     0.42564718
     0.42391304     0.46327706     0.42564718
     0.42391304     0.50327706     0.42564718
     0.42391304     0.54327706     0.42564718
     0.42391304     0.58327706     0.42564718
     0.42391304     0.62327706     0.42564718
     0.42391304     0.66327706     0.42564718
     0.42391304     0.70327706     0.42564718
     0.42391304     0.74327706     0.42564718
     0.42391304     0.78327706     0.42564718
     0.42391304     0.82327706     0.42564718
     0.42391304     0.86327706     0.42564718
     0.42391304     0.90327706     0.42564718
     0.42391304     0.94327706     0.42564718
     0.42391304     0.98327706     0.42564718
     0.44565217     0.02327706     0.42564718
     0.44565217     0.06327706     0.42564718
     0.44565217     0.10327706     0.42564718
     0.44565217     0.14327706     0.42564718
     0.44565217     0.18327706     0.42564718
     0.44565217     0.22327706     0.42564718
     0.44565217     0.26327706     0.42564718
     0.44565217     0.30327706     0.42564718
     0.44565217     0.34327706     0.42564718
     0.44565217     0.38327706     0.42564718
     0.44565217     0.42327706     0.42564718
     0.44565217     0.46327706     0.42564718
     0.44565217     0.50327706     0.42564718
     0.44565217     0.54327706     0.42564718
     0.44565217     0.58327706     0.42564718
     0.44565217     0.62327706     0.42564718
     0.44565217     0.66327706     0.42564718
     0.44565217     0.70327706     0.42564718
     0.44565217     0.74327706     0.42564718
     0.44565217     0.78327706     0.42564718
     0.44565217     0.82327706     0.42564718
     0.44565217     0.86327706     0.42564718
     0.44565217     0.90327706     0.42564718
     0.44565217     0.94327706     0.42564718
     0.44565217     0.98327706     0.42564718
     0.46739130     0.02327706     0.42564718
     0.46739130     0.06327706     0.42564718
     0.46739130     0.10327706     0.42564718
     0.46739130     0.14327706     0.42564718
     0.46739130     0.18327706     0.42564718
     0.46739130     0.22327706     0.42564718
     0.46739130     0.26327706     0.42564718
     0.46739130     0.30327706     0.42564718
     0.46739130     0.34327706     0.42564718
     0.46739130     0.38327706     0.42564718
     0.46739130     0.42327706     0.42564718
     0.46739130     0.46327706     0.42564718
     0.46739130     0.50327706     0.42564718
     0.46739130     0.54327706     0.42564718
     0.46739130     0.58327706     0.42564718
     0.46739130     0.62327706     0.42564718
     0.46739130     0.66327706     0.42564718
     0.46739130     0.70327706     0.42564718
     0.46739130     0.74327706     0.42564718
     0.46739130     0.78327706     0.42564718
     0.46739130     0.82327706     0.42564718
     0.46739130     0.86327706     0.42564718
     0.46739130     0.90327706     0.42564718
     0.46739130     0.94327706     0.42564718
     0.46739130     0.98327706     0.42564718
     0.48913043     0.02327706     0.42564718
     0.48913043     0.06327706     0.42564718
     0.48913043     0.10327706     0.42564718
     0.48913043     0.14327706     0.42564718
     0.48913043     0.18327706     0.42564718
     0.48913043     0.22327706     0.42564718
     0.48913043     0.26327706     0.42564718
     0.48913043     0.30327706     0.42564718
     0.48913043     0.34327706     0.42564718
     0.48913043     0.38327706     0.42564718
     0.48913043     0.42327706     0.42564718
     0.48913043     0.46327706     0.42564718
     0.48913043     0.50327706     0.42564718
     0.48913043     0.54327706     0.42564718
     0.48913043     0.58327706     0.42564718
     0.48913043     0.62327706     0.42564718
     0.48913043     0.66327706     0.42564718
     0.48913043     0.70327706     0.42564718
     0.48913043     0.74327706     0.42564718
     0.48913043     0.78327706     0.42564718
     0.48913043     0.82327706     0.42564718
     0.48913043     0.86327706     0.42564718
     0.48913043     0.90327706     0.42564718
     0.48913043     0.94327706     0.42564718
     0.48913043     0.98327706     0.42564718
     0.51086957     0.02327706     0.42564718
     0.51086957     0.06327706     0.42564718
     0.51086957     0.10327706     0.42564718
     0.51086957     0.14327706     0.42564718
     0.51086957     0.18327706     0.42564718
     0.51086957     0.22327706     0.42564718
     0.51086957     0.26327706     0.42564718
     0.51086957     0.30327706     0.42564718
     0.51086957     0.34327706     0.42564718
     0.51086957     0.38327706     0.42564718
     0.51086957     0.42327706     0.42564718
     0.51086957     0.46327706     0.42564718
     0.51086957     0.50327706     0.42564718
     0.51086957     0.54327706     0.42564718
     0.51086957     0.58327706     0.42564718
     0.51086957     0.62327706     0.42564718
     0.51086957     0.66327706     0.42564718
     0.51086957     0.70327706     0.42564718
     0.51086957     0.74327706     0.42564718
     0.51086957     0.78327706     0.42564718
     0.51086957     0.82327706     0.42564718
     0.51086957     0.86327706     0.42564718
     0.51086957     0.90327706     0.42564718
     0.51086957     0.94327706     0.42564718
     0.51086957     0.98327706     0.42564718
     0.53260870     0.02327706     0.42564718
     0.53260870     0.06327706     0.42564718
     0.53260870     0.10327706     0.42564718
     0.53260870     0.14327706     0.42564718
     0.53260870     0.18327706     0.42564718
     0.53260870     0.22327706     0.42564718
     0.53260870     0.26327706     0.42564718
     0.53260870     0.30327706     0.42564718
     0.53260870     0.34327706     0.42564718
     0.53260870     0.38327706     0.42564718
     0.53260870     0.42327706     0.42564718
     0.53260870     0.46327706     0.42564718
     0.53260870     0.50327706     0.42564718
     0.53260870     0.54327706     0.42564718
     0.53260870     0.58327706     0.42564718
     0.53260870     0.62327706     0.42564718
     0.53260870     0.66327706     0.42564718
     0.53260870     0.70327706     0.42564718
     0.53260870     0.74327706     0.42564718
     0.53260870     0.78327706     0.42564718
     0.53260870     0.82327706     0.42564718
     0.53260870     0.86327706     0.42564718
     0.53260870     0.90327706     0.42564718
     0.53260870     0.94327706     0.42564718
     0.53260870     0.98327706     0.42564718
     0.55434783     0.02327706     0.42564718
     0.55434783     0.06327706     0.42564718
     0.55434783     0.10327706     0.42564718
     0.55434783     0.14327706     0.42564718
     0.55434783     0.18327706     0.42564718
     0.55434783     0.22327706     0.42564718
     0.55434783     0.26327706     0.42564718
     0.55434783     0.30327706     0.42564718
     0.55434783     0.34327706     0.42564718
     0.55434783     0.38327706     0.42564718
     0.55434783     0.42327706     0.42564718
     0.55434783     0.46327706     0.42564718
     0.55434783     0.50327706     0.42564718
     0.55434783     0.54327706     0.42564718
     0.55434783     0.58327706     0.42564718
     0.55434783     0.62327706     0.42564718
     0.55434783     0.66327706     0.42564718
     0.55434783     0.70327706     0.42564718
     0.55434783     0.74327706     0.42564718
     0.55434783     0.78327706     0.42564718
     0.55434783     0.82327706     0.42564718
     0.55434783     0.86327706     0.42564718