Generated by Twist2D
    1.0
     141.77098430       0.00000000       0.00000000
       0.00000000     101.90118556       0.00000000
       0.00000000       0.00000000      20.00000000
    P
    7916
Direct
     0.01162791     0.02530115     0.42564718
     0.01162791     0.06877941     0.42564718
     0.01162791     0.11225767     0.42564718
     0.01162791     0.15573594     0.42564718
     0.01162791     0.19921420     0.42564718
     0.01162791     0.24269246     0.42564718
     0.01162791     0.28617072     0.42564718
     0.01162791     0.32964898     0.42564718
     0.01162791     0.37312724     0.42564718
     0.01162791     0.41660550     0.42564718
     0.01162791     0.46008376     0.42564718
     0.01162791     0.50356202     0.42564718
     0.01162791     0.54704028     0.42564718
     0.01162791     0.59051854     0.42564718
     0.01162791     0.63399681     0.42564718
     0.01162791     0.67747507     0.42564718
     0.01162791     0.72095333     0.42564718
     0.01162791     0.76443159     0.42564718
     0.01162791     0.80790985     0.42564718
     0.01162791     0.85138811     0.42564718
     0.01162791     0.89486637     0.42564718
     0.01162791     0.93834463     0.42564718
     0.01162791     0.98182289     0.42564718
     0.03488372     0.02530115     0.42564718
     0.03488372     0.06877941     0.42564718
     0.03488372     0.11225767     0.42564718
     0.03488372     0.15573594     0.42564718
     0.03488372     0.19921420     0.42564718
     0.03488372     0.24269246     0.42564718
     0.03488372     0.28617072     0.42564718
     0.03488372     0.32964898     0.42564718
     0.03488372     0.37312724     0.42564718
     0.03488372     0.41660550     0.42564718
     0.03488372     0.46008376     0.42564718
     0.03488372     0.50356202     0.42564718
     0.03488372     0.54704028     0.42564718
     0.03488372     0.59051854     0.42564718
     0.03488372     0.63399681     0.42564718
     0.03488372     0.67747507     0.42564718
     0.03488372     0.72095333     0.42564718
     0.03488372     0.76443159     0.42564718
     0.03488372     0.80790985     0.42564718
     0.03488372     0.85138811     0.42564718
     0.03488372     0.89486637     0.42564718
     0.03488372     0.93834463     0.42564718
     0.03488372     0.98182289     0.42564718
     0.05813953     0.02530115     0.42564718
     0.05813953     0.06877941     0.42564718
     0.05813953     0.11225767     0.42564718
     0.05813953     0.15573594     0.42564718
     0.05813953     0.19921420     0.42564718
     0.05813953     0.24269246     0.42564718
     0.05813953     0.28617072     0.42564718
     0.05813953     0.32964898     0.42564718
     0.05813953     0.37312724     0.42564718
     0.05813953     0.41660550     0.42564718
     0.05813953     0.46008376     0.42564718
     0.05813953     0.50356202     0.42564718
     0.05813953     0.54704028     0.42564718
     0.05813953     0.59051854     0.42564718
     0.05813953     0.63399681     0.42564718
     0.05813953     0.67747507     0.42564718
     0.05813953     0.72095333     0.42564718
     0.05813953     0.76443159     0.42564718
     0.05813953     0.80790985     0.42564718
     0.05813953     0.85138811     0.42564718
     0.05813953     0.89486637     0.42564718
     0.05813953     0.93834463     0.42564718
     0.05813953     0.98182289     0.42564718
     0.08139535     0.02530115     0.42564718
     0.08139535     0.06877941     0.42564718
     0.08139535     0.11225767     0.42564718
     0.08139535     0.15573594     0.42564718
     0.08139535     0.19921420     0.42564718
     0.08139535     0.24269246     0.42564718
     0.08139535     0.28617072     0.42564718
     0.08139535     0.32964898     0.42564718
     0.08139535     0.37312724     0.42564718
     0.08139535     0.41660550     0.42564718
     0.08139535     0.46008376     0.42564718
     0.08139535     0.50356202     0.42564718
     0.08139535     0.54704028     0.42564718
     0.08139535     0.59051854     0.42564718
     0.08139535     0.63399681     0.42564718
     0.08139535     0.67747507     0.42564718
     0.08139535     0.72095333     0.42564718
     0.08139535     0.76443159     0.42564718
     0.08139535     0.80790985     0.42564718
     0.08139535     0.85138811     0.42564718
     0.08139535     0.89486637     0.42564718
     0.08139535     0.93834463     0.42564718
     0.08139535     0.98182289     0.42564718
     0.10465116     0.02530115     0.42564718
     0.10465116     0.06877941     0.42564718
     0.10465116     0.11225767     0.42564718
     0.10465116     0.15573594     0.42564718
     0.10465116     0.19921420     0.42564718
     0.10465116     0.24269246     0.42564718
     0.10465116     0.28617072     0.42564718
     0.10465116     0.32964898     0.42564718
     0.10465116     0.37312724     0.42564718
     0.10465116     0.41660550     0.42564718
     0.10465116     0.46008376     0.42564718
     0.10465116     0.50356202     0.42564718
     0.10465116     0.54704028     0.42564718
     0.10465116     0.59051854     0.42564718
     0.10465116     0.63399681     0.42564718
     0.10465116     0.67747507     0.42564718
     0.10465116     0.72095333     0.42564718
     0.10465116     0.76443159     0.42564718
     0.10465116     0.80790985     0.42564718
     0.10465116     0.85138811     0.42564718
     0.10465116     0.89486637     0.42564718
     0.10465116     0.93834463     0.42564718
     0.10465116     0.98182289     0.42564718
     0.12790698     0.02530115     0.42564718
     0.12790698     0.06877941     0.42564718
     0.12790698     0.11225767     0.42564718
     0.12790698     0.15573594     0.42564718
     0.12790698     0.19921420     0.42564718
     0.12790698     0.24269246     0.42564718
     0.12790698     0.28617072     0.42564718
     0.12790698     0.32964898     0.42564718
     0.12790698     0.37312724     0.42564718
     0.12790698     0.41660550     0.42564718
     0.12790698     0.46008376     0.42564718
     0.12790698     0.50356202     0.42564718
     0.12790698     0.54704028     0.42564718
     0.12790698     0.59051854     0.42564718
     0.12790698     0.63399681     0.42564718
     0.12790698     0.67747507     0.42564718
     0.12790698     0.72095333     0.42564718
     0.12790698     0.76443159     0.42564718
     0.12790698     0.80790985     0.42564718
     0.12790698     0.85138811     0.42564718
     0.12790698     0.89486637     0.42564718
     0.12790698     0.93834463     0.42564718
     0.12790698     0.98182289     0.42564718
     0.15116279     0.02530115     0.42564718
     0.15116279     0.06877941     0.42564718
     0.15116279     0.11225767     0.42564718
     0.15116279     0.15573594     0.42564718
     0.15116279     0.19921420     0.42564718
     0.15116279     0.24269246     0.42564718
     0.15116279     0.28617072     0.42564718
     0.15116279     0.32964898     0.42564718
     0.15116279     0.37312724     0.42564718
     0.15116279     0.41660550     0.42564718
     0.15116279     0.46008376     0.42564718
     0.15116279     0.50356202     0.42564718
     0.15116279     0.54704028     0.42564718
     0.15116279     0.59051854     0.42564718
     0.15116279     0.63399681     0.42564718
     0.15116279     0.67747507     0.42564718
     0.15116279     0.72095333     0.42564718
     0.15116279     0.76443159     0.42564718
     0.15116279     0.80790985     0.42564718
     0.15116279     0.85138811     0.42564718
     0.15116279     0.89486637     0.42564718
     0.15116279     0.93834463     0.42564718
     0.15116279     0.98182289     0.42564718
     0.17441860     0.02530115     0.42564718
     0.17441860     0.06877941     0.42564718
     0.17441860     0.11225767     0.42564718
     0.17441860     0.15573594     0.42564718
     0.17441860     0.19921420     0.42564718
     0.17441860     0.24269246     0.42564718
     0.17441860     0.28617072     0.42564718
     0.17441860     0.32964898     0.42564718
     0.17441860     0.37312724     0.42564718
     0.17441860     0.41660550     0.42564718
     0.17441860     0.46008376     0.42564718
     0.17441860     0.50356202     0.42564718
     0.17441860     0.54704028     0.42564718
     0.17441860     0.59051854     0.42564718
     0.17441860     0.63399681     0.42564718
     0.17441860     0.67747507     0.42564718
     0.17441860     0.72095333     0.42564718
     0.17441860     0.76443159     0.42564718
     0.17441860     0.80790985     0.42564718
     0.17441860     0.85138811     0.42564718
     0.17441860     0.89486637     0.42564718
     0.17441860     0.93834463     0.42564718
     0.17441860     0.98182289     0.42564718
     0.19767442     0.02530115     0.42564718
     0.19767442     0.06877941     0.42564718
     0.19767442     0.11225767     0.42564718
     0.19767442     0.15573594     0.42564718
     0.19767442     0.19921420     0.42564718
     0.19767442     0.24269246     0.42564718
     0.19767442     0.28617072     0.42564718
     0.19767442     0.32964898     0.42564718
     0.19767442     0.37312724     0.42564718
     0.19767442     0.41660550     0.42564718
     0.19767442     0.46008376     0.42564718
     0.19767442     0.50356202     0.42564718
     0.19767442     0.54704028     0.42564718
     0.19767442     0.59051854     0.42564718
     0.19767442     0.63399681     0.42564718
     0.19767442     0.67747507     0.42564718
     0.19767442     0.72095333     0.42564718
     0.19767442     0.76443159     0.42564718
     0.19767442     0.80790985     0.42564718
     0.19767442     0.85138811     0.42564718
     0.19767442     0.89486637     0.42564718
     0.19767442     0.93834463     0.42564718
     0.19767442     0.98182289     0.42564718
     0.22093023     0.02530115     0.42564718
     0.22093023     0.06877941     0.42564718
     0.22093023     0.11225767     0.42564718
     0.22093023     0.15573594     0.42564718
     0.22093023     0.19921420     0.42564718
     0.22093023     0.24269246     0.42564718
     0.22093023     0.28617072     0.42564718
     0.22093023     0.32964898     0.42564718
     0.22093023     0.37312724     0.42564718
     0.22093023     0.41660550     0.42564718
     0.22093023     0.46008376     0.42564718
     0.22093023     0.50356202     0.42564718
     0.22093023     0.54704028     0.42564718
     0.22093023     0.59051854     0.42564718
     0.22093023     0.63399681     0.42564718
     0.22093023     0.67747507     0.42564718
     0.22093023     0.72095333     0.42564718
     0.22093023     0.76443159     0.42564718
     0.22093023     0.80790985     0.42564718
     0.22093023     0.85138811     0.42564718
     0.22093023     0.89486637     0.42564718
     0.22093023     0.93834463     0.42564718
     0.22093023     0.98182289     0.42564718
     0.24418605     0.02530115     0.42564718
     0.24418605     0.06877941     0.42564718
     0.24418605     0.11225767     0.42564718
     0.24418605     0.15573594     0.42564718
     0.24418605     0.19921420     0.42564718
     0.24418605     0.24269246     0.42564718
     0.24418605     0.28617072     0.42564718
     0.24418605     0.32964898     0.42564718
     0.24418605     0.37312724     0.42564718
     0.24418605     0.41660550     0.42564718
     0.24418605     0.46008376     0.42564718
     0.24418605     0.50356202     0.42564718
     0.24418605     0.54704028     0.42564718
     0.24418605     0.59051854     0.42564718
     0.24418605     0.63399681     0.42564718
     0.24418605     0.67747507     0.42564718
     0.24418605     0.72095333     0.42564718
     0.24418605     0.76443159     0.42564718
     0.24418605     0.80790985     0.42564718
     0.24418605     0.85138811     0.42564718
     0.24418605     0.89486637     0.42564718
     0.24418605     0.93834463     0.42564718
     0.24418605     0.98182289     0.42564718
     0.26744186     0.02530115     0.42564718
     0.26744186     0.06877941     0.42564718
     0.26744186     0.11225767     0.42564718
     0.26744186     0.15573594     0.42564718
     0.26744186     0.19921420     0.42564718
     0.26744186     0.24269246     0.42564718
     0.26744186     0.28617072     0.42564718
     0.26744186     0.32964898     0.42564718
     0.26744186     0.37312724     0.42564718
     0.26744186     0.41660550     0.42564718
     0.26744186     0.46008376     0.42564718
     0.26744186     0.50356202     0.42564718
     0.26744186     0.54704028     0.42564718
     0.26744186     0.59051854     0.42564718
     0.26744186     0.63399681     0.42564718
     0.26744186     0.67747507     0.42564718
     0.26744186     0.72095333     0.42564718
     0.26744186     0.76443159     0.42564718
     0.26744186     0.80790985     0.42564718
     0.26744186     0.85138811     0.42564718
     0.26744186     0.89486637     0.42564718
     0.26744186     0.93834463     0.42564718
     0.26744186     0.98182289     0.42564718
     0.29069767     0.02530115     0.42564718
     0.29069767     0.06877941     0.42564718
     0.29069767     0.11225767     0.42564718
     0.29069767     0.15573594     0.42564718
     0.29069767     0.19921420     0.42564718
     0.29069767     0.24269246     0.42564718
     0.29069767     0.28617072     0.42564718
     0.29069767     0.32964898     0.42564718
     0.29069767     0.37312724     0.42564718
     0.29069767     0.41660550     0.42564718
     0.29069767     0.46008376     0.42564718
     0.29069767     0.50356202     0.42564718
     0.29069767     0.54704028     0.42564718
     0.29069767     0.59051854     0.42564718
     0.29069767     0.63399681     0.42564718
     0.29069767     0.67747507     0.42564718
     0.29069767     0.72095333     0.42564718
     0.29069767     0.76443159     0.42564718
     0.29069767     0.80790985     0.42564718
     0.29069767     0.85138811     0.42564718
     0.29069767     0.89486637     0.42564718
     0.29069767     0.93834463     0.42564718
     0.29069767     0.98182289     0.42564718
     0.31395349     0.02530115     0.42564718
     0.31395349     0.06877941     0.42564718
     0.31395349     0.11225767     0.42564718
     0.31395349     0.15573594     0.42564718
     0.31395349     0.19921420     0.42564718
     0.31395349     0.24269246     0.42564718
     0.31395349     0.28617072     0.42564718
     0.31395349     0.32964898     0.42564718
     0.31395349     0.37312724     0.42564718
     0.31395349     0.41660550     0.42564718
     0.31395349     0.46008376     0.42564718
     0.31395349     0.50356202     0.42564718
     0.31395349     0.54704028     0.42564718
     0.31395349     0.59051854     0.42564718
     0.31395349     0.63399681     0.42564718
     0.31395349     0.67747507     0.42564718
     0.31395349     0.72095333     0.42564718
     0.31395349     0.76443159     0.42564718
     0.31395349     0.80790985     0.42564718
     0.31395349     0.85138811     0.42564718
     0.31395349     0.89486637     0.42564718
     0.31395349     0.93834463     0.42564718
     0.31395349     0.98182289     0.42564718
     0.33720930     0.02530115     0.42564718
     0.33720930     0.06877941     0.42564718
     0.33720930     0.11225767     0.42564718
     0.33720930     0.15573594     0.42564718
     0.33720930     0.19921420     0.42564718
     0.33720930     0.24269246     0.42564718
     0.33720930     0.28617072     0.42564718
     0.33720930     0.32964898     0.42564718
     0.33720930     0.37312724     0.42564718
     0.33720930     0.41660550     0.42564718
     0.33720930     0.46008376     0.42564718
     0.33720930     0.50356202     0.42564718
     0.33720930     0.54704028     0.42564718
     0.33720930     0.59051854     0.42564718
     0.33720930     0.63399681     0.42564718
     0.33720930     0.67747507     0.42564718
     0.33720930     0.72095333     0.42564718
     0.33720930     0.76443159     0.42564718
     0.33720930     0.80790985     0.42564718
     0.33720930     0.85138811     0.42564718
     0.33720930     0.89486637     0.42564718
     0.33720930     0.93834463     0.42564718
     0.33720930     0.98182289     0.42564718
     0.36046512     0.02530115     0.42564718
     0.36046512     0.06877941     0.42564718
     0.36046512     0.11225767     0.42564718
     0.36046512     0.15573594     0.42564718
     0.36046512     0.19921420     0.42564718
     0.36046512     0.24269246     0.42564718
     0.36046512     0.28617072     0.42564718
     0.36046512     0.32964898     0.42564718
     0.36046512     0.37312724     0.42564718
     0.36046512     0.41660550     0.42564718
     0.36046512     0.46008376     0.42564718
     0.36046512     0.50356202     0.42564718
     0.36046512     0.54704028     0.42564718
     0.36046512     0.59051854     0.42564718
     0.36046512     0.63399681     0.42564718
     0.36046512     0.67747507     0.42564718
     0.36046512     0.72095333     0.42564718
     0.36046512     0.76443159     0.42564718
     0.36046512     0.80790985     0.42564718
     0.36046512     0.85138811     0.42564718
     0.36046512     0.89486637     0.42564718
     0.36046512     0.93834463     0.42564718
     0.36046512     0.98182289     0.42564718
     0.38372093     0.02530115     0.42564718
     0.38372093     0.06877941     0.42564718
     0.38372093     0.11225767     0.42564718
     0.38372093     0.15573594     0.42564718
     0.38372093     0.19921420     0.42564718
     0.38372093     0.24269246     0.42564718
     0.38372093     0.28617072     0.42564718
     0.38372093     0.32964898     0.42564718
     0.38372093     0.37312724     0.42564718
     0.38372093     0.41660550     0.42564718
     0.38372093     0.46008376     0.42564718
     0.38372093     0.50356202     0.42564718
     0.38372093     0.54704028     0.42564718
     0.38372093     0.59051854     0.42564718
     0.38372093     0.63399681     0.42564718
     0.38372093     0.67747507     0.42564718
     0.38372093     0.72095333     0.42564718
     0.38372093     0.76443159     0.42564718
     0.38372093     0.80790985     0.42564718
     0.38372093     0.85138811     0.42564718
     0.38372093     0.89486637     0.42564718
     0.38372093     0.93834463     0.42564718
     0.38372093     0.98182289     0.42564718
     0.40697674     0.02530115     0.42564718
     0.40697674     0.06877941     0.42564718
     0.40697674     0.11225767     0.42564718
     0.40697674     0.15573594     0.42564718
     0.40697674     0.19921420     0.42564718
     0.40697674     0.24269246     0.42564718
     0.40697674     0.28617072     0.42564718
     0.40697674     0.32964898     0.42564718
     0.40697674     0.37312724     0.42564718
     0.40697674     0.41660550     0.42564718
     0.40697674     0.46008376     0.42564718
     0.40697674     0.50356202     0.42564718
     0.40697674     0.54704028     0.42564718
     0.40697674     0.59051854     0.42564718
     0.40697674     0.63399681     0.42564718
     0.40697674     0.67747507     0.42564718
     0.40697674     0.72095333     0.42564718
     0.40697674     0.76443159     0.42564718
     0.40697674     0.80790985     0.42564718
     0.40697674     0.85138811     0.42564718
     0.40697674     0.89486637     0.42564718
     0.40697674     0.93834463     0.42564718
     0.40697674     0.98182289     0.42564718
     0.43023256     0.02530115     0.42564718
     0.43023256     0.06877941     0.42564718
     0.43023256     0.11225767     0.42564718
     0.43023256     0.15573594     0.42564718
     0.43023256     0.19921420     0.42564718
     0.43023256     0.24269246     0.42564718
     0.43023256     0.28617072     0.42564718
     0.43023256     0.32964898     0.42564718
     0.43023256     0.37312724     0.42564718
     0.43023256     0.41660550     0.42564718
     0.43023256     0.46008376     0.42564718
     0.43023256     0.50356202     0.42564718
     0.43023256     0.54704028     0.42564718
     0.43023256     0.59051854     0.42564718
     0.43023256     0.63399681     0.42564718
     0.43023256     0.67747507     0.42564718
     0.43023256     0.72095333     0.42564718
     0.43023256     0.76443159     0.42564718
     0.43023256     0.80790985     0.42564718
     0.43023256     0.85138811     0.42564718
     0.43023256     0.89486637     0.42564718
     0.43023256     0.93834463     0.42564718
     0.43023256     0.98182289     0.42564718
     0.45348837     0.02530115     0.42564718
     0.45348837     0.06877941     0.42564718
     0.45348837     0.11225767     0.42564718
     0.45348837     0.15573594     0.42564718
     0.45348837     0.19921420     0.42564718
     0.45348837     0.24269246     0.42564718
     0.45348837     0.28617072     0.42564718
     0.45348837     0.32964898     0.42564718
     0.45348837     0.37312724     0.42564718
     0.45348837     0.41660550     0.42564718
     0.45348837     0.46008376     0.42564718
     0.45348837     0.50356202     0.42564718
     0.45348837     0.54704028     0.42564718
     0.45348837     0.59051854     0.42564718
     0.45348837     0.63399681     0.42564718
     0.45348837     0.67747507     0.42564718
     0.45348837     0.72095333     0.42564718
     0.45348837     0.76443159     0.42564718
     0.45348837     0.80790985     0.42564718
     0.45348837     0.85138811     0.42564718
     0.45348837     0.89486637     0.42564718
     0.45348837     0.93834463     0.42564718
     0.45348837     0.98182289     0.42564718
     0.47674419     0.02530115     0.42564718
     0.47674419     0.06877941     0.42564718
     0.47674419     0.11225767     0.42564718
     0.47674419     0.15573594     0.42564718
     0.47674419     0.19921420     0.42564718
     0.47674419     0.24269246     0.42564718
     0.47674419     0.28617072     0.42564718
     0.47674419     0.32964898     0.42564718
     0.47674419     0.37312724     0.42564718
     0.47674419     0.41660550     0.42564718
     0.47674419     0.46008376     0.42564718
     0.47674419     0.50356202     0.42564718
     0.47674419     0.54704028     0.42564718
     0.47674419     0.59051854     0.42564718
     0.47674419     0.63399681     0.42564718
     0.47674419     0.67747507     0.42564718
     0.47674419     0.72095333     0.42564718
     0.47674419     0.76443159     0.42564718
     0.47674419     0.80790985     0.42564718
     0.47674419     0.85138811     0.42564718
     0.47674419     0.89486637     0.42564718
     0.47674419     0.93834463     0.42564718
     0.47674419     0.98182289     0.42564718
     0.50000000     0.02530115     0.42564718
     0.50000000     0.06877941     0.42564718
     0.50000000     0.11225767     0.42564718
     0.50000000     0.15573594     0.42564718
     0.50000000     0.19921420     0.42564718
     0.50000000     0.24269246     0.42564718
     0.50000000     0.28617072     0.42564718
     0.50000000     0.32964898     0.42564718
     0.50000000     0.37312724     0.42564718
     0.50000000     0.41660550     0.42564718
     0.50000000     0.46008376     0.42564718
     0.50000000     0.50356202     0.42564718
     0.50000000     0.54704028     0.42564718
     0.50000000     0.59051854     0.42564718
     0.50000000     0.63399681     0.42564718
     0.50000000     0.67747507     0.42564718
     0.50000000     0.72095333     0.42564718
     0.50000000     0.76443159     0.42564718
     0.50000000     0.80790985     0.42564718
     0.50000000     0.85138811     0.42564718
     0.50000000     0.89486637     0.42564718
     0.50000000     0.93834463     0.42564718
     0.50000000     0.98182289     0.42564718
     0.52325581     0.02530115     0.42564718
     0.52325581     0.06877941     0.42564718
     0.52325581     0.11225767     0.42564718
     0.52325581     0.15573594     0.42564718
     0.52325581     0.19921420     0.42564718
     0.52325581     0.24269246     0.42564718
     0.52325581     0.28617072     0.42564718
     0.52325581     0.32964898     0.42564718
     0.52325581     0.37312724     0.42564718
     0.52325581     0.41660550     0.42564718
     0.52325581     0.46008376     0.42564718
     0.52325581     0.50356202     0.42564718
     0.52325581     0.54704028     0.42564718
     0.52325581     0.59051854     0.42564718
     0.52325581     0.63399681     0.42564718
     0.52325581     0.67747507     0.42564718
     0.52325581     0.72095333     0.42564718
     0.52325581     0.76443159     0.42564718
     0.52325581     0.80790985     0.42564718
     0.52325581     0.85138811     0.42564718
     0.52325581     0.89486637     0.42564718
     0.52325581     0.93834463     0.42564718
     0.52325581     0.98182289     0.42564718
     0.54651163     0.02530115     0.42564718
     0.54651163     0.06877941     0.42564718
     0.54651163     0.11225767     0.42564718
     0.54651163     0.15573594     0.42564718
     0.54651163     0.19921420     0.42564718
     0.54651163     0.24269246     0.42564718
     0.54651163     0.28617072     0.42564718
     0.54651163     0.32964898     0.42564718
     0.54651163     0.37312724     0.42564718
     0.54651163     0.41660550     0.42564718
     0.54651163     0.46008376     0.42564718
     0.54651163     0.50356202     0.42564718
     0.54651163     0.54704028     0.42564718
     0.54651163     0.59051854     0.42564718
     0.54651163     0.63399681     0.42564718
     0.54651163     0.67747507     0.42564718
     0.54651163     0.72095333     0.42564718
     0.54651163     0.76443159     0.42564718
     0.54651163     0.80790985     0.42564718
     0.54651163     0.85138811     0.42564718
     0.54651163     0.89486637     0.42564718
     0.54651163     0.93834463     0.42564718
     0.54651163     0.98182289     0.42564718
     0.56976744     0.02530115     0.42564718
     0.56976744     0.06877941     0.42564718
     0.56976744     0.11225767     0.42564718
     0.56976744     0.15573594     0.42564718
     0.56976744     0.19921420     0.42564718
     0.56976744     0.24269246     0.42564718
     0.56976744     0.28617072     0.42564718
     0.56976744     0.32964898     0.42564718
     0.56976744     0.37312724     0.42564718
     0.56976744     0.41660550     0.42564718
     0.56976744     0.46008376     0.42564718
     0.56976744     0.50356202     0.42564718
     0.56976744     0.54704028     0.42564718
     0.56976744     0.59051854     0.42564718
     0.56976744     0.63399681     0.42564718
     0.56976744     0.67747507     0.42564718
     0.56976744     0.72095333     0.42564718
     0.56976744     0.76443159     0.42564718
     0.56976744     0.80790985     0.42564718
     0.56976744     0.85138811     0.42564718
     0.56976744     0.89486637     0.42564718
     0.56976744     0.93834463     0.42564718
     0.56976744     0.98182289     0.42564718
     0.59302326     0.02530115     0.42564718
     0.59302326     0.06877941     0.42564718
     0.59302326     0.11225767     0.42564718
     0.59302326     0.15573594     0.42564718
     0.59302326     0.19921420     0.42564718
     0.59302326     0.24269246     0.42564718
     0.59302326     0.28617072     0.42564718
     0.59302326     0.32964898     0.42564718
     0.59302326     0.37312724     0.42564718
     0.59302326     0.41660550     0.42564718
     0.59302326     0.46008376     0.42564718
     0.59302326     0.50356202     0.42564718
     0.59302326     0.54704028     0.42564718
     0.59302326     0.59051854     0.42564718
     0.59302326     0.63399681     0.42564718
     0.59302326     0.67747507     0.42564718
     0.59302326     0.72095333     0.42564718
     0.59302326     0.76443159     0.42564718
     0.59302326     0.80790985     0.42564718
     0.59302326     0.85138811     0.42564718
     0.59302326     0.89486637     0.42564718
     0.59302326     0.93834463     0.42564718
     0.59302326     0.98182289     0.42564718
     0.61627907     0.02530115     0.42564718
     0.61627907     0.06877941     0.42564718
     0.61627907     0.11225767     0.42564718
     0.61627907     0.15573594     0.42564718
     0.61627907     0.19921420     0.42564718
     0.61627907     0.24269246     0.42564718
     0.61627907     0.28617072     0.42564718
     0.61627907     0.32964898     0.42564718
     0.61627907     0.37312724     0.42564718
     0.61627907     0.41660550     0.42564718
     0.61627907     0.46008376     0.42564718
     0.61627907     0.50356202     0.42564718
     0.61627907     0.54704028     0.42564718
     0.61627907     0.59051854     0.42564718
     0.61627907     0.63399681     0.42564718
     0.61627907     0.67747507     0.42564718
     0.61627907     0.72095333     0.42564718
     0.61627907     0.76443159     0.42564718
     0.61627907     0.80790985     0.42564718
     0.61627907     0.85138811     0.42564718
     0.61627907     0.89486637     0.42564718
     0.61627907     0.93834463     0.42564718
     0.61627907     0.98182289     0.42564718
     0.63953488     0.02530115     0.42564718
     0.63953488     0.06877941     0.42564718
     0.63953488     0.11225767     0.42564718
     0.63953488     0.15573594     0.42564718
     0.63953488     0.19921420     0.42564718
     0.63953488     0.24269246     0.42564718
     0.63953488     0.28617072     0.42564718
     0.63953488     0.32964898     0.42564718
     0.63953488     0.37312724     0.42564718
     0.63953488     0.41660550     0.42564718
     0.63953488     0.46008376     0.42564718
     0.63953488     0.50356202     0.42564718
     0.63953488     0.54704028     0.42564718
     0.63953488     0.59051854     0.42564718
     0.63953488     0.63399681     0.42564718
     0.63953488     0.67747507     0.42564718
     0.63953488     0.72095333     0.42564718
     0.63953488     0.76443159     0.42564718
     0.63953488     0.80790985     0.42564718
     0.63953488     0.85138811     0.42564718
     0.63953488     0.89486637     0.42564718
     0.63953488     0.93834463     0.42564718
     0.63953488     0.98182289     0.42564718
     0.66279070     0.02530115     0.42564718
     0.66279070     0.06877941     0.42564718
     0.66279070     0.11225767     0.42564718