Generated by Twist2D
    1.0
     135.17698503       0.00000000       0.00000000
       0.00000000     101.90118556       0.00000000
       0.00000000       0.00000000      20.00000000
    P
    7548
Direct
     0.01219512     0.02530115     0.42564718
     0.01219512     0.06877941     0.42564718
     0.01219512     0.11225767     0.42564718
     0.01219512     0.15573594     0.42564718
     0.01219512     0.19921420     0.42564718
     0.01219512     0.24269246     0.42564718
     0.01219512     0.28617072     0.42564718
     0.01219512     0.32964898     0.42564718
     0.01219512     0.37312724     0.42564718
     0.01219512     0.41660550     0.42564718
     0.01219512     0.46008376     0.42564718
     0.01219512     0.50356202     0.42564718
     0.01219512     0.54704028     0.42564718
     0.01219512     0.59051854     0.42564718
     0.01219512     0.63399681     0.42564718
     0.01219512     0.67747507     0.42564718
     0.01219512     0.72095333     0.42564718
     0.01219512     0.76443159     0.42564718
     0.01219512     0.80790985     0.42564718
     0.01219512     0.85138811     0.42564718
     0.01219512     0.89486637     0.42564718
     0.01219512     0.93834463     0.42564718
     0.01219512     0.98182289     0.42564718
     0.03658537     0.02530115     0.42564718
     0.03658537     0.06877941     0.42564718
     0.03658537     0.11225767     0.42564718
     0.03658537     0.15573594     0.42564718
     0.03658537     0.19921420     0.42564718
     0.03658537     0.24269246     0.42564718
     0.03658537     0.28617072     0.42564718
     0.03658537     0.32964898     0.42564718
     0.03658537     0.37312724     0.42564718
     0.03658537     0.41660550     0.42564718
     0.03658537     0.46008376     0.42564718
     0.03658537     0.50356202     0.42564718
     0.03658537     0.54704028     0.42564718
     0.03658537     0.59051854     0.42564718
     0.03658537     0.63399681     0.42564718
     0.03658537     0.67747507     0.42564718
     0.03658537     0.72095333     0.42564718
     0.03658537     0.76443159     0.42564718
     0.03658537     0.80790985     0.42564718
     0.03658537     0.85138811     0.42564718
     0.03658537     0.89486637     0.42564718
     0.03658537     0.93834463     0.42564718
     0.03658537     0.98182289     0.42564718
     0.06097561     0.02530115     0.42564718
     0.06097561     0.06877941     0.42564718
     0.06097561     0.11225767     0.42564718
     0.06097561     0.15573594     0.42564718
     0.06097561     0.19921420     0.42564718
     0.06097561     0.24269246     0.42564718
     0.06097561     0.28617072     0.42564718
     0.06097561     0.32964898     0.42564718
     0.06097561     0.37312724     0.42564718
     0.06097561     0.41660550     0.42564718
     0.06097561     0.46008376     0.42564718
     0.06097561     0.50356202     0.42564718
     0.06097561     0.54704028     0.42564718
     0.06097561     0.59051854     0.42564718
     0.06097561     0.63399681     0.42564718
     0.06097561     0.67747507     0.42564718
     0.06097561     0.72095333     0.42564718
     0.06097561     0.76443159     0.42564718
     0.06097561     0.80790985     0.42564718
     0.06097561     0.85138811     0.42564718
     0.06097561     0.89486637     0.42564718
     0.06097561     0.93834463     0.42564718
     0.06097561     0.98182289     0.42564718
     0.08536585     0.02530115     0.42564718
     0.08536585     0.06877941     0.42564718
     0.08536585     0.11225767     0.42564718
     0.08536585     0.15573594     0.42564718
     0.08536585     0.19921420     0.42564718
     0.08536585     0.24269246     0.42564718
     0.08536585     0.28617072     0.42564718
     0.08536585     0.32964898     0.42564718
     0.08536585     0.37312724     0.42564718
     0.08536585     0.41660550     0.42564718
     0.08536585     0.46008376     0.42564718
     0.08536585     0.50356202     0.42564718
     0.08536585     0.54704028     0.42564718
     0.08536585     0.59051854     0.42564718
     0.08536585     0.63399681     0.42564718
     0.08536585     0.67747507     0.42564718
     0.08536585     0.72095333     0.42564718
     0.08536585     0.76443159     0.42564718
     0.08536585     0.80790985     0.42564718
     0.08536585     0.85138811     0.42564718
     0.08536585     0.89486637     0.42564718
     0.08536585     0.93834463     0.42564718
     0.08536585     0.98182289     0.42564718
     0.10975610     0.02530115     0.42564718
     0.10975610     0.06877941     0.42564718
     0.10975610     0.11225767     0.42564718
     0.10975610     0.15573594     0.42564718
     0.10975610     0.19921420     0.42564718
     0.10975610     0.24269246     0.42564718
     0.10975610     0.28617072     0.42564718
     0.10975610     0.32964898     0.42564718
     0.10975610     0.37312724     0.42564718
     0.10975610     0.41660550     0.42564718
     0.10975610     0.46008376     0.42564718
     0.10975610     0.50356202     0.42564718
     0.10975610     0.54704028     0.42564718
     0.10975610     0.59051854     0.42564718
     0.10975610     0.63399681     0.42564718
     0.10975610     0.67747507     0.42564718
     0.10975610     0.72095333     0.42564718
     0.10975610     0.76443159     0.42564718
     0.10975610     0.80790985     0.42564718
     0.10975610     0.85138811     0.42564718
     0.10975610     0.89486637     0.42564718
     0.10975610     0.93834463     0.42564718
     0.10975610     0.98182289     0.42564718
     0.13414634     0.02530115     0.42564718
     0.13414634     0.06877941     0.42564718
     0.13414634     0.11225767     0.42564718
     0.13414634     0.15573594     0.42564718
     0.13414634     0.19921420     0.42564718
     0.13414634     0.24269246     0.42564718
     0.13414634     0.28617072     0.42564718
     0.13414634     0.32964898     0.42564718
     0.13414634     0.37312724     0.42564718
     0.13414634     0.41660550     0.42564718
     0.13414634     0.46008376     0.42564718
     0.13414634     0.50356202     0.42564718
     0.13414634     0.54704028     0.42564718
     0.13414634     0.59051854     0.42564718
     0.13414634     0.63399681     0.42564718
     0.13414634     0.67747507     0.42564718
     0.13414634     0.72095333     0.42564718
     0.13414634     0.76443159     0.42564718
     0.13414634     0.80790985     0.42564718
     0.13414634     0.85138811     0.42564718
     0.13414634     0.89486637     0.42564718
     0.13414634     0.93834463     0.42564718
     0.13414634     0.98182289     0.42564718
     0.15853659     0.02530115     0.42564718
     0.15853659     0.06877941     0.42564718
     0.15853659     0.11225767     0.42564718
     0.15853659     0.15573594     0.42564718
     0.15853659     0.19921420     0.42564718
     0.15853659     0.24269246     0.42564718
     0.15853659     0.28617072     0.42564718
     0.15853659     0.32964898     0.42564718
     0.15853659     0.37312724     0.42564718
     0.15853659     0.41660550     0.42564718
     0.15853659     0.46008376     0.42564718
     0.15853659     0.50356202     0.42564718
     0.15853659     0.54704028     0.42564718
     0.15853659     0.59051854     0.42564718
     0.15853659     0.63399681     0.42564718
     0.15853659     0.67747507     0.42564718
     0.15853659     0.72095333     0.42564718
     0.15853659     0.76443159     0.42564718
     0.15853659     0.80790985     0.42564718
     0.15853659     0.85138811     0.42564718
     0.15853659     0.89486637     0.42564718
     0.15853659     0.93834463     0.42564718
     0.15853659     0.98182289     0.42564718
     0.18292683     0.02530115     0.42564718
     0.18292683     0.06877941     0.42564718
     0.18292683     0.11225767     0.42564718
     0.18292683     0.15573594     0.42564718
     0.18292683     0.19921420     0.42564718
     0.18292683     0.24269246     0.42564718
     0.18292683     0.28617072     0.42564718
     0.18292683     0.32964898     0.42564718
     0.18292683     0.37312724     0.42564718
     0.18292683     0.41660550     0.42564718
     0.18292683     0.46008376     0.42564718
     0.18292683     0.50356202     0.42564718
     0.18292683     0.54704028     0.42564718
     0.18292683     0.59051854     0.42564718
     0.18292683     0.63399681     0.42564718
     0.18292683     0.67747507     0.42564718
     0.18292683     0.72095333     0.42564718
     0.18292683     0.76443159     0.42564718
     0.18292683     0.80790985     0.42564718
     0.18292683     0.85138811     0.42564718
     0.18292683     0.89486637     0.42564718
     0.18292683     0.93834463     0.42564718
     0.18292683     0.98182289     0.42564718
     0.20731707     0.02530115     0.42564718
     0.20731707     0.06877941     0.42564718
     0.20731707     0.11225767     0.42564718
     0.20731707     0.15573594     0.42564718
     0.20731707     0.19921420     0.42564718
     0.20731707     0.24269246     0.42564718
     0.20731707     0.28617072     0.42564718
     0.20731707     0.32964898     0.42564718
     0.20731707     0.37312724     0.42564718
     0.20731707     0.41660550     0.42564718
     0.20731707     0.46008376     0.42564718
     0.20731707     0.50356202     0.42564718
     0.20731707     0.54704028     0.42564718
     0.20731707     0.59051854     0.42564718
     0.20731707     0.63399681     0.42564718
     0.20731707     0.67747507     0.42564718
     0.20731707     0.72095333     0.42564718
     0.20731707     0.76443159     0.42564718
     0.20731707     0.80790985     0.42564718
     0.20731707     0.85138811     0.42564718
     0.20731707     0.89486637     0.42564718
     0.20731707     0.93834463     0.42564718
     0.20731707     0.98182289     0.42564718
     0.23170732     0.02530115     0.42564718
     0.23170732     0.06877941     0.42564718
     0.23170732     0.11225767     0.42564718
     0.23170732     0.15573594     0.42564718
     0.23170732     0.19921420     0.42564718
     0.23170732     0.24269246     0.42564718
     0.23170732     0.28617072     0.42564718
     0.23170732     0.32964898     0.42564718
     0.23170732     0.37312724     0.42564718
     0.23170732     0.41660550     0.42564718
     0.23170732     0.46008376     0.42564718
     0.23170732     0.50356202     0.42564718
     0.23170732     0.54704028     0.42564718
     0.23170732     0.59051854     0.42564718
     0.23170732     0.63399681     0.42564718
     0.23170732     0.67747507     0.42564718
     0.23170732     0.72095333     0.42564718
     0.23170732     0.76443159     0.42564718
     0.23170732     0.80790985     0.42564718
     0.23170732     0.85138811     0.42564718
     0.23170732     0.89486637     0.42564718
     0.23170732     0.93834463     0.42564718
     0.23170732     0.98182289     0.42564718
     0.25609756     0.02530115     0.42564718
     0.25609756     0.06877941     0.42564718
     0.25609756     0.11225767     0.42564718
     0.25609756     0.15573594     0.42564718
     0.25609756     0.19921420     0.42564718
     0.25609756     0.24269246     0.42564718
     0.25609756     0.28617072     0.42564718
     0.25609756     0.32964898     0.42564718
     0.25609756     0.37312724     0.42564718
     0.25609756     0.41660550     0.42564718
     0.25609756     0.46008376     0.42564718
     0.25609756     0.50356202     0.42564718
     0.25609756     0.54704028     0.42564718
     0.25609756     0.59051854     0.42564718
     0.25609756     0.63399681     0.42564718
     0.25609756     0.67747507     0.42564718
     0.25609756     0.72095333     0.42564718
     0.25609756     0.76443159     0.42564718
     0.25609756     0.80790985     0.42564718
     0.25609756     0.85138811     0.42564718
     0.25609756     0.89486637     0.42564718
     0.25609756     0.93834463     0.42564718
     0.25609756     0.98182289     0.42564718
     0.28048780     0.02530115     0.42564718
     0.28048780     0.06877941     0.42564718
     0.28048780     0.11225767     0.42564718
     0.28048780     0.15573594     0.42564718
     0.28048780     0.19921420     0.42564718
     0.28048780     0.24269246     0.42564718
     0.28048780     0.28617072     0.42564718
     0.28048780     0.32964898     0.42564718
     0.28048780     0.37312724     0.42564718
     0.28048780     0.41660550     0.42564718
     0.28048780     0.46008376     0.42564718
     0.28048780     0.50356202     0.42564718
     0.28048780     0.54704028     0.42564718
     0.28048780     0.59051854     0.42564718
     0.28048780     0.63399681     0.42564718
     0.28048780     0.67747507     0.42564718
     0.28048780     0.72095333     0.42564718
     0.28048780     0.76443159     0.42564718
     0.28048780     0.80790985     0.42564718
     0.28048780     0.85138811     0.42564718
     0.28048780     0.89486637     0.42564718
     0.28048780     0.93834463     0.42564718
     0.28048780     0.98182289     0.42564718
     0.30487805     0.02530115     0.42564718
     0.30487805     0.06877941     0.42564718
     0.30487805     0.11225767     0.42564718
     0.30487805     0.15573594     0.42564718
     0.30487805     0.19921420     0.42564718
     0.30487805     0.24269246     0.42564718
     0.30487805     0.28617072     0.42564718
     0.30487805     0.32964898     0.42564718
     0.30487805     0.37312724     0.42564718
     0.30487805     0.41660550     0.42564718
     0.30487805     0.46008376     0.42564718
     0.30487805     0.50356202     0.42564718
     0.30487805     0.54704028     0.42564718
     0.30487805     0.59051854     0.42564718
     0.30487805     0.63399681     0.42564718
     0.30487805     0.67747507     0.42564718
     0.30487805     0.72095333     0.42564718
     0.30487805     0.76443159     0.42564718
     0.30487805     0.80790985     0.42564718
     0.30487805     0.85138811     0.42564718
     0.30487805     0.89486637     0.42564718
     0.30487805     0.93834463     0.42564718
     0.30487805     0.98182289     0.42564718
     0.32926829     0.02530115     0.42564718
     0.32926829     0.06877941     0.42564718
     0.32926829     0.11225767     0.42564718
     0.32926829     0.15573594     0.42564718
     0.32926829     0.19921420     0.42564718
     0.32926829     0.24269246     0.42564718
     0.32926829     0.28617072     0.42564718
     0.32926829     0.32964898     0.42564718
     0.32926829     0.37312724     0.42564718
     0.32926829     0.41660550     0.42564718
     0.32926829     0.46008376     0.42564718
     0.32926829     0.50356202     0.42564718
     0.32926829     0.54704028     0.42564718
     0.32926829     0.59051854     0.42564718
     0.32926829     0.63399681     0.42564718
     0.32926829     0.67747507     0.42564718
     0.32926829     0.72095333     0.42564718
     0.32926829     0.76443159     0.42564718
     0.32926829     0.80790985     0.42564718
     0.32926829     0.85138811     0.42564718
     0.32926829     0.89486637     0.42564718
     0.32926829     0.93834463     0.42564718
     0.32926829     0.98182289     0.42564718
     0.35365854     0.02530115     0.42564718
     0.35365854     0.06877941     0.42564718
     0.35365854     0.11225767     0.42564718
     0.35365854     0.15573594     0.42564718
     0.35365854     0.19921420     0.42564718
     0.35365854     0.24269246     0.42564718
     0.35365854     0.28617072     0.42564718
     0.35365854     0.32964898     0.42564718
     0.35365854     0.37312724     0.42564718
     0.35365854     0.41660550     0.42564718
     0.35365854     0.46008376     0.42564718
     0.35365854     0.50356202     0.42564718
     0.35365854     0.54704028     0.42564718
     0.35365854     0.59051854     0.42564718
     0.35365854     0.63399681     0.42564718
     0.35365854     0.67747507     0.42564718
     0.35365854     0.72095333     0.42564718
     0.35365854     0.76443159     0.42564718
     0.35365854     0.80790985     0.42564718
     0.35365854     0.85138811     0.42564718
     0.35365854     0.89486637     0.42564718
     0.35365854     0.93834463     0.42564718
     0.35365854     0.98182289     0.42564718
     0.37804878     0.02530115     0.42564718
     0.37804878     0.06877941     0.42564718
     0.37804878     0.11225767     0.42564718
     0.37804878     0.15573594     0.42564718
     0.37804878     0.19921420     0.42564718
     0.37804878     0.24269246     0.42564718
     0.37804878     0.28617072     0.42564718
     0.37804878     0.32964898     0.42564718
     0.37804878     0.37312724     0.42564718
     0.37804878     0.41660550     0.42564718
     0.37804878     0.46008376     0.42564718
     0.37804878     0.50356202     0.42564718
     0.37804878     0.54704028     0.42564718
     0.37804878     0.59051854     0.42564718
     0.37804878     0.63399681     0.42564718
     0.37804878     0.67747507     0.42564718
     0.37804878     0.72095333     0.42564718
     0.37804878     0.76443159     0.42564718
     0.37804878     0.80790985     0.42564718
     0.37804878     0.85138811     0.42564718
     0.37804878     0.89486637     0.42564718
     0.37804878     0.93834463     0.42564718
     0.37804878     0.98182289     0.42564718
     0.40243902     0.02530115     0.42564718
     0.40243902     0.06877941     0.42564718
     0.40243902     0.11225767     0.42564718
     0.40243902     0.15573594     0.42564718
     0.40243902     0.19921420     0.42564718
     0.40243902     0.24269246     0.42564718
     0.40243902     0.28617072     0.42564718
     0.40243902     0.32964898     0.42564718
     0.40243902     0.37312724     0.42564718
     0.40243902     0.41660550     0.42564718
     0.40243902     0.46008376     0.42564718
     0.40243902     0.50356202     0.42564718
     0.40243902     0.54704028     0.42564718
     0.40243902     0.59051854     0.42564718
     0.40243902     0.63399681     0.42564718
     0.40243902     0.67747507     0.42564718
     0.40243902     0.72095333     0.42564718
     0.40243902     0.76443159     0.42564718
     0.40243902     0.80790985     0.42564718
     0.40243902     0.85138811     0.42564718
     0.40243902     0.89486637     0.42564718
     0.40243902     0.93834463     0.42564718
     0.40243902     0.98182289     0.42564718
     0.42682927     0.02530115     0.42564718
     0.42682927     0.06877941     0.42564718
     0.42682927     0.11225767     0.42564718
     0.42682927     0.15573594     0.42564718
     0.42682927     0.19921420     0.42564718
     0.42682927     0.24269246     0.42564718
     0.42682927     0.28617072     0.42564718
     0.42682927     0.32964898     0.42564718
     0.42682927     0.37312724     0.42564718
     0.42682927     0.41660550     0.42564718
     0.42682927     0.46008376     0.42564718
     0.42682927     0.50356202     0.42564718
     0.42682927     0.54704028     0.42564718
     0.42682927     0.59051854     0.42564718
     0.42682927     0.63399681     0.42564718
     0.42682927     0.67747507     0.42564718
     0.42682927     0.72095333     0.42564718
     0.42682927     0.76443159     0.42564718
     0.42682927     0.80790985     0.42564718
     0.42682927     0.85138811     0.42564718
     0.42682927     0.89486637     0.42564718
     0.42682927     0.93834463     0.42564718
     0.42682927     0.98182289     0.42564718
     0.45121951     0.02530115     0.42564718
     0.45121951     0.06877941     0.42564718
     0.45121951     0.11225767     0.42564718
     0.45121951     0.15573594     0.42564718
     0.45121951     0.19921420     0.42564718
     0.45121951     0.24269246     0.42564718
     0.45121951     0.28617072     0.42564718
     0.45121951     0.32964898     0.42564718
     0.45121951     0.37312724     0.42564718
     0.45121951     0.41660550     0.42564718
     0.45121951     0.46008376     0.42564718
     0.45121951     0.50356202     0.42564718
     0.45121951     0.54704028     0.42564718
     0.45121951     0.59051854     0.42564718
     0.45121951     0.63399681     0.42564718
     0.45121951     0.67747507     0.42564718
     0.45121951     0.72095333     0.42564718
     0.45121951     0.76443159     0.42564718
     0.45121951     0.80790985     0.42564718
     0.45121951     0.85138811     0.42564718
     0.45121951     0.89486637     0.42564718
     0.45121951     0.93834463     0.42564718
     0.45121951     0.98182289     0.42564718
     0.47560976     0.02530115     0.42564718
     0.47560976     0.06877941     0.42564718
     0.47560976     0.11225767     0.42564718
     0.47560976     0.15573594     0.42564718
     0.47560976     0.19921420     0.42564718
     0.47560976     0.24269246     0.42564718
     0.47560976     0.28617072     0.42564718
     0.47560976     0.32964898     0.42564718
     0.47560976     0.37312724     0.42564718
     0.47560976     0.41660550     0.42564718
     0.47560976     0.46008376     0.42564718
     0.47560976     0.50356202     0.42564718
     0.47560976     0.54704028     0.42564718
     0.47560976     0.59051854     0.42564718
     0.47560976     0.63399681     0.42564718
     0.47560976     0.67747507     0.42564718
     0.47560976     0.72095333     0.42564718
     0.47560976     0.76443159     0.42564718
     0.47560976     0.80790985     0.42564718
     0.47560976     0.85138811     0.42564718
     0.47560976     0.89486637     0.42564718
     0.47560976     0.93834463     0.42564718
     0.47560976     0.98182289     0.42564718
     0.50000000     0.02530115     0.42564718
     0.50000000     0.06877941     0.42564718
     0.50000000     0.11225767     0.42564718
     0.50000000     0.15573594     0.42564718
     0.50000000     0.19921420     0.42564718
     0.50000000     0.24269246     0.42564718
     0.50000000     0.28617072     0.42564718
     0.50000000     0.32964898     0.42564718
     0.50000000     0.37312724     0.42564718
     0.50000000     0.41660550     0.42564718
     0.50000000     0.46008376     0.42564718
     0.50000000     0.50356202     0.42564718
     0.50000000     0.54704028     0.42564718
     0.50000000     0.59051854     0.42564718
     0.50000000     0.63399681     0.42564718
     0.50000000     0.67747507     0.42564718
     0.50000000     0.72095333     0.42564718
     0.50000000     0.76443159     0.42564718
     0.50000000     0.80790985     0.42564718
     0.50000000     0.85138811     0.42564718
     0.50000000     0.89486637     0.42564718
     0.50000000     0.93834463     0.42564718
     0.50000000     0.98182289     0.42564718
     0.52439024     0.02530115     0.42564718
     0.52439024     0.06877941     0.42564718
     0.52439024     0.11225767     0.42564718
     0.52439024     0.15573594     0.42564718
     0.52439024     0.19921420     0.42564718
     0.52439024     0.24269246     0.42564718
     0.52439024     0.28617072     0.42564718
     0.52439024     0.32964898     0.42564718
     0.52439024     0.37312724     0.42564718
     0.52439024     0.41660550     0.42564718
     0.52439024     0.46008376     0.42564718
     0.52439024     0.50356202     0.42564718
     0.52439024     0.54704028     0.42564718
     0.52439024     0.59051854     0.42564718
     0.52439024     0.63399681     0.42564718
     0.52439024     0.67747507     0.42564718
     0.52439024     0.72095333     0.42564718
     0.52439024     0.76443159     0.42564718
     0.52439024     0.80790985     0.42564718
     0.52439024     0.85138811     0.42564718
     0.52439024     0.89486637     0.42564718
     0.52439024     0.93834463     0.42564718
     0.52439024     0.98182289     0.42564718
     0.54878049     0.02530115     0.42564718
     0.54878049     0.06877941     0.42564718
     0.54878049     0.11225767     0.42564718
     0.54878049     0.15573594     0.42564718
     0.54878049     0.19921420     0.42564718
     0.54878049     0.24269246     0.42564718
     0.54878049     0.28617072     0.42564718
     0.54878049     0.32964898     0.42564718
     0.54878049     0.37312724     0.42564718
     0.54878049     0.41660550     0.42564718
     0.54878049     0.46008376     0.42564718
     0.54878049     0.50356202     0.42564718
     0.54878049     0.54704028     0.42564718
     0.54878049     0.59051854     0.42564718
     0.54878049     0.63399681     0.42564718
     0.54878049     0.67747507     0.42564718
     0.54878049     0.72095333     0.42564718
     0.54878049     0.76443159     0.42564718
     0.54878049     0.80790985     0.42564718
     0.54878049     0.85138811     0.42564718
     0.54878049     0.89486637     0.42564718
     0.54878049     0.93834463     0.42564718
     0.54878049     0.98182289     0.42564718
     0.57317073     0.02530115     0.42564718
     0.57317073     0.06877941     0.42564718
     0.57317073     0.11225767     0.42564718
     0.57317073     0.15573594     0.42564718
     0.57317073     0.19921420     0.42564718
     0.57317073     0.24269246     0.42564718
     0.57317073     0.28617072     0.42564718
     0.57317073     0.32964898     0.42564718
     0.57317073     0.37312724     0.42564718
     0.57317073     0.41660550     0.42564718
     0.57317073     0.46008376     0.42564718
     0.57317073     0.50356202     0.42564718
     0.57317073     0.54704028     0.42564718
     0.57317073     0.59051854     0.42564718
     0.57317073     0.63399681     0.42564718
     0.57317073     0.67747507     0.42564718
     0.57317073     0.72095333     0.42564718
     0.57317073     0.76443159     0.42564718
     0.57317073     0.80790985     0.42564718
     0.57317073     0.85138811     0.42564718
     0.57317073     0.89486637     0.42564718
     0.57317073     0.93834463     0.42564718
     0.57317073     0.98182289     0.42564718
     0.59756098     0.02530115     0.42564718
     0.59756098     0.06877941     0.42564718
     0.59756098     0.11225767     0.42564718
     0.59756098     0.15573594     0.42564718
     0.59756098     0.19921420     0.42564718
     0.59756098     0.24269246     0.42564718
     0.59756098     0.28617072     0.42564718
     0.59756098     0.32964898     0.42564718
     0.59756098     0.37312724     0.42564718
     0.59756098     0.41660550     0.42564718
     0.59756098     0.46008376     0.42564718
     0.59756098     0.50356202     0.42564718
     0.59756098     0.54704028     0.42564718
     0.59756098     0.59051854     0.42564718
     0.59756098     0.63399681     0.42564718
     0.59756098     0.67747507     0.42564718
     0.59756098     0.72095333     0.42564718
     0.59756098     0.76443159     0.42564718
     0.59756098     0.80790985     0.42564718
     0.59756098     0.85138811     0.42564718
     0.59756098     0.89486637     0.42564718
     0.59756098     0.93834463     0.42564718
     0.59756098     0.98182289     0.42564718
     0.62195122     0.02530115     0.42564718
     0.62195122     0.06877941     0.42564718
     0.62195122     0.11225767     0.42564718
     0.62195122     0.15573594     0.42564718
     0.62195122     0.19921420     0.42564718
     0.62195122     0.24269246     0.42564718
     0.62195122     0.28617072     0.42564718
     0.62195122     0.32964898     0.42564718
     0.62195122     0.37312724     0.42564718
     0.62195122     0.41660550     0.42564718
     0.62195122     0.46008376     0.42564718
     0.62195122     0.50356202     0.42564718
     0.62195122     0.54704028     0.42564718
     0.62195122     0.59051854     0.42564718
     0.62195122     0.63399681     0.42564718
     0.62195122     0.67747507     0.42564718
     0.62195122     0.72095333     0.42564718
     0.62195122     0.76443159     0.42564718
     0.62195122     0.80790985     0.42564718
     0.62195122     0.85138811     0.42564718
     0.62195122     0.89486637     0.42564718
     0.62195122     0.93834463     0.42564718
     0.62195122     0.98182289     0.42564718
     0.64634146     0.02530115     0.42564718
     0.64634146     0.06877941     0.42564718
     0.64634146     0.11225767     0.42564718
     0.64634146     0.15573594     0.42564718
     0.64634146     0.19921420     0.42564718
     0.64634146     0.24269246     0.42564718
     0.64634146     0.28617072     0.42564718
     0.64634146     0.32964898     0.42564718
     0.64634146     0.37312724     0.42564718
     0.64634146     0.41660550     0.42564718
     0.64634146     0.46008376     0.42564718
     0.64634146     0.50356202     0.42564718
     0.64634146     0.54704028     0.42564718
     0.64634146     0.59051854     0.42564718
     0.64634146     0.63399681     0.42564718
     0.64634146     0.67747507     0.42564718
     0.64634146     0.72095333     0.42564718
     0.64634146     0.76443159     0.42564718
     0.64634146     0.80790985     0.42564718
     0.64634146     0.85138811     0.42564718
     0.64634146     0.89486637     0.42564718
     0.64634146     0.93834463     0.42564718
     0.64634146     0.98182289     0.42564718
     0.67073171     0.02530115     0.42564718
     0.67073171     0.06877941     0.42564718
     0.67073171     0.11225767     0.42564718
     0.67073171     0.15573594     0.42564718
     0.67073171     0.19921420     0.42564718
     0.67073171     0.24269246     0.42564718
     0.67073171     0.28617072     0.42564718
     0.67073171     0.32964898     0.42564718
     0.67073171     0.37312724     0.42564718
     0.67073171     0.41660550     0.42564718
     0.67073171     0.46008376     0.42564718
     0.67073171     0.50356202     0.42564718
     0.67073171     0.54704028     0.42564718
     0.67073171     0.59051854     0.42564718
     0.67073171     0.63399681     0.42564718
     0.67073171     0.67747507     0.42564718
     0.67073171     0.72095333     0.42564718
     0.67073171     0.76443159     0.42564718
     0.67073171     0.80790985     0.42564718
     0.67073171     0.85138811     0.42564718
     0.67073171     0.89486637     0.42564718
     0.67073171     0.93834463     0.42564718
     0.67073171     0.98182289     0.42564718
     0.69512195     0.02530115     0.42564718
     0.69512195     0.06877941     0.42564718
     0.69512195     0.11225767     0.42564718