Generated by Twist2D
    1.0
      79.12799124       0.00000000       0.00000000
       0.00000000      57.59632228       0.00000000
       0.00000000       0.00000000      20.00000000
    P
    2500
Direct
     0.02083333     0.04476358     0.42564718
     0.02083333     0.12168666     0.42564718
     0.02083333     0.19860973     0.42564718
     0.02083333     0.27553281     0.42564718
     0.02083333     0.35245589     0.42564718
     0.02083333     0.42937896     0.42564718
     0.02083333     0.50630204     0.42564718
     0.02083333     0.58322512     0.42564718
     0.02083333     0.66014819     0.42564718
     0.02083333     0.73707127     0.42564718
     0.02083333     0.81399435     0.42564718
     0.02083333     0.89091742     0.42564718
     0.02083333     0.96784050     0.42564718
     0.06250000     0.04476358     0.42564718
     0.06250000     0.12168666     0.42564718
     0.06250000     0.19860973     0.42564718
     0.06250000     0.27553281     0.42564718
     0.06250000     0.35245589     0.42564718
     0.06250000     0.42937896     0.42564718
     0.06250000     0.50630204     0.42564718
     0.06250000     0.58322512     0.42564718
     0.06250000     0.66014819     0.42564718
     0.06250000     0.73707127     0.42564718
     0.06250000     0.81399435     0.42564718
     0.06250000     0.89091742     0.42564718
     0.06250000     0.96784050     0.42564718
     0.10416667     0.04476358     0.42564718
     0.10416667     0.12168666     0.42564718
     0.10416667     0.19860973     0.42564718
     0.10416667     0.27553281     0.42564718
     0.10416667     0.35245589     0.42564718
     0.10416667     0.42937896     0.42564718
     0.10416667     0.50630204     0.42564718
     0.10416667     0.58322512     0.42564718
     0.10416667     0.66014819     0.42564718
     0.10416667     0.73707127     0.42564718
     0.10416667     0.81399435     0.42564718
     0.10416667     0.89091742     0.42564718
     0.10416667     0.96784050     0.42564718
     0.14583333     0.04476358     0.42564718
     0.14583333     0.12168666     0.42564718
     0.14583333     0.19860973     0.42564718
     0.14583333     0.27553281     0.42564718
     0.14583333     0.35245589     0.42564718
     0.14583333     0.42937896     0.42564718
     0.14583333     0.50630204     0.42564718
     0.14583333     0.58322512     0.42564718
     0.14583333     0.66014819     0.42564718
     0.14583333     0.73707127     0.42564718
     0.14583333     0.81399435     0.42564718
     0.14583333     0.89091742     0.42564718
     0.14583333     0.96784050     0.42564718
     0.18750000     0.04476358     0.42564718
     0.18750000     0.12168666     0.42564718
     0.18750000     0.19860973     0.42564718
     0.18750000     0.27553281     0.42564718
     0.18750000     0.35245589     0.42564718
     0.18750000     0.42937896     0.42564718
     0.18750000     0.50630204     0.42564718
     0.18750000     0.58322512     0.42564718
     0.18750000     0.66014819     0.42564718
     0.18750000     0.73707127     0.42564718
     0.18750000     0.81399435     0.42564718
     0.18750000     0.89091742     0.42564718
     0.18750000     0.96784050     0.42564718
     0.22916667     0.04476358     0.42564718
     0.22916667     0.12168666     0.42564718
     0.22916667     0.19860973     0.42564718
     0.22916667     0.27553281     0.42564718
     0.22916667     0.35245589     0.42564718
     0.22916667     0.42937896     0.42564718
     0.22916667     0.50630204     0.42564718
     0.22916667     0.58322512     0.42564718
     0.22916667     0.66014819     0.42564718
     0.22916667     0.73707127     0.42564718
     0.22916667     0.81399435     0.42564718
     0.22916667     0.89091742     0.42564718
     0.22916667     0.96784050     0.42564718
     0.27083333     0.04476358     0.42564718
     0.27083333     0.12168666     0.42564718
     0.27083333     0.19860973     0.42564718
     0.27083333     0.27553281     0.42564718
     0.27083333     0.35245589     0.42564718
     0.27083333     0.42937896     0.42564718
     0.27083333     0.50630204     0.42564718
     0.27083333     0.58322512     0.42564718
     0.27083333     0.66014819     0.42564718
     0.27083333     0.73707127     0.42564718
     0.27083333     0.81399435     0.42564718
     0.27083333     0.89091742     0.42564718
     0.27083333     0.96784050     0.42564718
     0.31250000     0.04476358     0.42564718
     0.31250000     0.12168666     0.42564718
     0.31250000     0.19860973     0.42564718
     0.31250000     0.27553281     0.42564718
     0.31250000     0.35245589     0.42564718
     0.31250000     0.42937896     0.42564718
     0.31250000     0.50630204     0.42564718
     0.31250000     0.58322512     0.42564718
     0.31250000     0.66014819     0.42564718
     0.31250000     0.73707127     0.42564718
     0.31250000     0.81399435     0.42564718
     0.31250000     0.89091742     0.42564718
     0.31250000     0.96784050     0.42564718
     0.35416667     0.04476358     0.42564718
     0.35416667     0.12168666     0.42564718
     0.35416667     0.19860973     0.42564718
     0.35416667     0.27553281     0.42564718
     0.35416667     0.35245589     0.42564718
     0.35416667     0.42937896     0.42564718
     0.35416667     0.50630204     0.42564718
     0.35416667     0.58322512     0.42564718
     0.35416667     0.66014819     0.42564718
     0.35416667     0.73707127     0.42564718
     0.35416667     0.81399435     0.42564718
     0.35416667     0.89091742     0.42564718
     0.35416667     0.96784050     0.42564718
     0.39583333     0.04476358     0.42564718
     0.39583333     0.12168666     0.42564718
     0.39583333     0.19860973     0.42564718
     0.39583333     0.27553281     0.42564718
     0.39583333     0.35245589     0.42564718
     0.39583333     0.42937896     0.42564718
     0.39583333     0.50630204     0.42564718
     0.39583333     0.58322512     0.42564718
     0.39583333     0.66014819     0.42564718
     0.39583333     0.73707127     0.42564718
     0.39583333     0.81399435     0.42564718
     0.39583333     0.89091742     0.42564718
     0.39583333     0.96784050     0.42564718
     0.43750000     0.04476358     0.42564718
     0.43750000     0.12168666     0.42564718
     0.43750000     0.19860973     0.42564718
     0.43750000     0.27553281     0.42564718
     0.43750000     0.35245589     0.42564718
     0.43750000     0.42937896     0.42564718
     0.43750000     0.50630204     0.42564718
     0.43750000     0.58322512     0.42564718
     0.43750000     0.66014819     0.42564718
     0.43750000     0.73707127     0.42564718
     0.43750000     0.81399435     0.42564718
     0.43750000     0.89091742     0.42564718
     0.43750000     0.96784050     0.42564718
     0.47916667     0.04476358     0.42564718
     0.47916667     0.12168666     0.42564718
     0.47916667     0.19860973     0.42564718
     0.47916667     0.27553281     0.42564718
     0.47916667     0.35245589     0.42564718
     0.47916667     0.42937896     0.42564718
     0.47916667     0.50630204     0.42564718
     0.47916667     0.58322512     0.42564718
     0.47916667     0.66014819     0.42564718
     0.47916667     0.73707127     0.42564718
     0.47916667     0.81399435     0.42564718
     0.47916667     0.89091742     0.42564718
     0.47916667     0.96784050     0.42564718
     0.52083333     0.04476358     0.42564718
     0.52083333     0.12168666     0.42564718
     0.52083333     0.19860973     0.42564718
     0.52083333     0.27553281     0.42564718
     0.52083333     0.35245589     0.42564718
     0.52083333     0.42937896     0.42564718
     0.52083333     0.50630204     0.42564718
     0.52083333     0.58322512     0.42564718
     0.52083333     0.66014819     0.42564718
     0.52083333     0.73707127     0.42564718
     0.52083333     0.81399435     0.42564718
     0.52083333     0.89091742     0.42564718
     0.52083333     0.96784050     0.42564718
     0.56250000     0.04476358     0.42564718
     0.56250000     0.12168666     0.42564718
     0.56250000     0.19860973     0.42564718
     0.56250000     0.27553281     0.42564718
     0.56250000     0.35245589     0.42564718
     0.56250000     0.42937896     0.42564718
     0.56250000     0.50630204     0.42564718
     0.56250000     0.58322512     0.42564718
     0.56250000     0.66014819     0.42564718
     0.56250000     0.73707127     0.42564718
     0.56250000     0.81399435     0.42564718
     0.56250000     0.89091742     0.42564718
     0.56250000     0.96784050     0.42564718
     0.60416667     0.04476358     0.42564718
     0.60416667     0.12168666     0.42564718
     0.60416667     0.19860973     0.42564718
     0.60416667     0.27553281     0.42564718
     0.60416667     0.35245589     0.42564718
     0.60416667     0.42937896     0.42564718
     0.60416667     0.50630204     0.42564718
     0.60416667     0.58322512     0.42564718
     0.60416667     0.66014819     0.42564718
     0.60416667     0.73707127     0.42564718
     0.60416667     0.81399435     0.42564718
     0.60416667     0.89091742     0.42564718
     0.60416667     0.96784050     0.42564718
     0.64583333     0.04476358     0.42564718
     0.64583333     0.12168666     0.42564718
     0.64583333     0.19860973     0.42564718
     0.64583333     0.27553281     0.42564718
     0.64583333     0.35245589     0.42564718
     0.64583333     0.42937896     0.42564718
     0.64583333     0.50630204     0.42564718
     0.64583333     0.58322512     0.42564718
     0.64583333     0.66014819     0.42564718
     0.64583333     0.73707127     0.42564718
     0.64583333     0.81399435     0.42564718
     0.64583333     0.89091742     0.42564718
     0.64583333     0.96784050     0.42564718
     0.68750000     0.04476358     0.42564718
     0.68750000     0.12168666     0.42564718
     0.68750000     0.19860973     0.42564718
     0.68750000     0.27553281     0.42564718
     0.68750000     0.35245589     0.42564718
     0.68750000     0.42937896     0.42564718
     0.68750000     0.50630204     0.42564718
     0.68750000     0.58322512     0.42564718
     0.68750000     0.66014819     0.42564718
     0.68750000     0.73707127     0.42564718
     0.68750000     0.81399435     0.42564718
     0.68750000     0.89091742     0.42564718
     0.68750000     0.96784050     0.42564718
     0.72916667     0.04476358     0.42564718
     0.72916667     0.12168666     0.42564718
     0.72916667     0.19860973     0.42564718
     0.72916667     0.27553281     0.42564718
     0.72916667     0.35245589     0.42564718
     0.72916667     0.42937896     0.42564718
     0.72916667     0.50630204     0.42564718
     0.72916667     0.58322512     0.42564718
     0.72916667     0.66014819     0.42564718
     0.72916667     0.73707127     0.42564718
     0.72916667     0.81399435     0.42564718
     0.72916667     0.89091742     0.42564718
     0.72916667     0.96784050     0.42564718
     0.77083333     0.04476358     0.42564718
     0.77083333     0.12168666     0.42564718
     0.77083333     0.19860973     0.42564718
     0.77083333     0.27553281     0.42564718
     0.77083333     0.35245589     0.42564718
     0.77083333     0.42937896     0.42564718
     0.77083333     0.50630204     0.42564718
     0.77083333     0.58322512     0.42564718
     0.77083333     0.66014819     0.42564718
     0.77083333     0.73707127     0.42564718
     0.77083333     0.81399435     0.42564718
     0.77083333     0.89091742     0.42564718
     0.77083333     0.96784050     0.42564718
     0.81250000     0.04476358     0.42564718
     0.81250000     0.12168666     0.42564718
     0.81250000     0.19860973     0.42564718
     0.81250000     0.27553281     0.42564718
     0.81250000     0.35245589     0.42564718
     0.81250000     0.42937896     0.42564718
     0.81250000     0.50630204     0.42564718
     0.81250000     0.58322512     0.42564718
     0.81250000     0.66014819     0.42564718
     0.81250000     0.73707127     0.42564718
     0.81250000     0.81399435     0.42564718
     0.81250000     0.89091742     0.42564718
     0.81250000     0.96784050     0.42564718
     0.85416667     0.04476358     0.42564718
     0.85416667     0.12168666     0.42564718
     0.85416667     0.19860973     0.42564718
     0.85416667     0.27553281     0.42564718
     0.85416667     0.35245589     0.42564718
     0.85416667     0.42937896     0.42564718
     0.85416667     0.50630204     0.42564718
     0.85416667     0.58322512     0.42564718
     0.85416667     0.66014819     0.42564718
     0.85416667     0.73707127     0.42564718
     0.85416667     0.81399435     0.42564718
     0.85416667     0.89091742     0.42564718
     0.85416667     0.96784050     0.42564718
     0.89583333     0.04476358     0.42564718
     0.89583333     0.12168666     0.42564718
     0.89583333     0.19860973     0.42564718
     0.89583333     0.27553281     0.42564718
     0.89583333     0.35245589     0.42564718
     0.89583333     0.42937896     0.42564718
     0.89583333     0.50630204     0.42564718
     0.89583333     0.58322512     0.42564718
     0.89583333     0.66014819     0.42564718
     0.89583333     0.73707127     0.42564718
     0.89583333     0.81399435     0.42564718
     0.89583333     0.89091742     0.42564718
     0.89583333     0.96784050     0.42564718
     0.93750000     0.04476358     0.42564718
     0.93750000     0.12168666     0.42564718
     0.93750000     0.19860973     0.42564718
     0.93750000     0.27553281     0.42564718
     0.93750000     0.35245589     0.42564718
     0.93750000     0.42937896     0.42564718
     0.93750000     0.50630204     0.42564718
     0.93750000     0.58322512     0.42564718
     0.93750000     0.66014819     0.42564718
     0.93750000     0.73707127     0.42564718
     0.93750000     0.81399435     0.42564718
     0.93750000     0.89091742     0.42564718
     0.93750000     0.96784050     0.42564718
     0.97916667     0.04476358     0.42564718
     0.97916667     0.12168666     0.42564718
     0.97916667     0.19860973     0.42564718
     0.97916667     0.27553281     0.42564718
     0.97916667     0.35245589     0.42564718
     0.97916667     0.42937896     0.42564718
     0.97916667     0.50630204     0.42564718
     0.97916667     0.58322512     0.42564718
     0.97916667     0.66014819     0.42564718
     0.97916667     0.73707127     0.42564718
     0.97916667     0.81399435     0.42564718
     0.97916667     0.89091742     0.42564718
     0.97916667     0.96784050     0.42564718
     0.02083333     0.03211806     0.31941913
     0.02083333     0.10904114     0.31941913
     0.02083333     0.18596422     0.31941913
     0.02083333     0.26288729     0.31941913
     0.02083333     0.33981037     0.31941913
     0.02083333     0.41673345     0.31941913
     0.02083333     0.49365652     0.31941913
     0.02083333     0.57057960     0.31941913
     0.02083333     0.64750268     0.31941913
     0.02083333     0.72442575     0.31941913
     0.02083333     0.80134883     0.31941913
     0.02083333     0.87827191     0.31941913
     0.02083333     0.95519498     0.31941913
     0.06250000     0.03211806     0.31941913
     0.06250000     0.10904114     0.31941913
     0.06250000     0.18596422     0.31941913
     0.06250000     0.26288729     0.31941913
     0.06250000     0.33981037     0.31941913
     0.06250000     0.41673345     0.31941913
     0.06250000     0.49365652     0.31941913
     0.06250000     0.57057960     0.31941913
     0.06250000     0.64750268     0.31941913
     0.06250000     0.72442575     0.31941913
     0.06250000     0.80134883     0.31941913
     0.06250000     0.87827191     0.31941913
     0.06250000     0.95519498     0.31941913
     0.10416667     0.03211806     0.31941913
     0.10416667     0.10904114     0.31941913
     0.10416667     0.18596422     0.31941913
     0.10416667     0.26288729     0.31941913
     0.10416667     0.33981037     0.31941913
     0.10416667     0.41673345     0.31941913
     0.10416667     0.49365652     0.31941913
     0.10416667     0.57057960     0.31941913
     0.10416667     0.64750268     0.31941913
     0.10416667     0.72442575     0.31941913
     0.10416667     0.80134883     0.31941913
     0.10416667     0.87827191     0.31941913
     0.10416667     0.95519498     0.31941913
     0.14583333     0.03211806     0.31941913
     0.14583333     0.10904114     0.31941913
     0.14583333     0.18596422     0.31941913
     0.14583333     0.26288729     0.31941913
     0.14583333     0.33981037     0.31941913
     0.14583333     0.41673345     0.31941913
     0.14583333     0.49365652     0.31941913
     0.14583333     0.57057960     0.31941913
     0.14583333     0.64750268     0.31941913
     0.14583333     0.72442575     0.31941913
     0.14583333     0.80134883     0.31941913
     0.14583333     0.87827191     0.31941913
     0.14583333     0.95519498     0.31941913
     0.18750000     0.03211806     0.31941913
     0.18750000     0.10904114     0.31941913
     0.18750000     0.18596422     0.31941913
     0.18750000     0.26288729     0.31941913
     0.18750000     0.33981037     0.31941913
     0.18750000     0.41673345     0.31941913
     0.18750000     0.49365652     0.31941913
     0.18750000     0.57057960     0.31941913
     0.18750000     0.64750268     0.31941913
     0.18750000     0.72442575     0.31941913
     0.18750000     0.80134883     0.31941913
     0.18750000     0.87827191     0.31941913
     0.18750000     0.95519498     0.31941913
     0.22916667     0.03211806     0.31941913
     0.22916667     0.10904114     0.31941913
     0.22916667     0.18596422     0.31941913
     0.22916667     0.26288729     0.31941913
     0.22916667     0.33981037     0.31941913
     0.22916667     0.41673345     0.31941913
     0.22916667     0.49365652     0.31941913
     0.22916667     0.57057960     0.31941913
     0.22916667     0.64750268     0.31941913
     0.22916667     0.72442575     0.31941913
     0.22916667     0.80134883     0.31941913
     0.22916667     0.87827191     0.31941913
     0.22916667     0.95519498     0.31941913
     0.27083333     0.03211806     0.31941913
     0.27083333     0.10904114     0.31941913
     0.27083333     0.18596422     0.31941913
     0.27083333     0.26288729     0.31941913
     0.27083333     0.33981037     0.31941913
     0.27083333     0.41673345     0.31941913
     0.27083333     0.49365652     0.31941913
     0.27083333     0.57057960     0.31941913
     0.27083333     0.64750268     0.31941913
     0.27083333     0.72442575     0.31941913
     0.27083333     0.80134883     0.31941913
     0.27083333     0.87827191     0.31941913
     0.27083333     0.95519498     0.31941913
     0.31250000     0.03211806     0.31941913
     0.31250000     0.10904114     0.31941913
     0.31250000     0.18596422     0.31941913
     0.31250000     0.26288729     0.31941913
     0.31250000     0.33981037     0.31941913
     0.31250000     0.41673345     0.31941913
     0.31250000     0.49365652     0.31941913
     0.31250000     0.57057960     0.31941913
     0.31250000     0.64750268     0.31941913
     0.31250000     0.72442575     0.31941913
     0.31250000     0.80134883     0.31941913
     0.31250000     0.87827191     0.31941913
     0.31250000     0.95519498     0.31941913
     0.35416667     0.03211806     0.31941913
     0.35416667     0.10904114     0.31941913
     0.35416667     0.18596422     0.31941913
     0.35416667     0.26288729     0.31941913
     0.35416667     0.33981037     0.31941913
     0.35416667     0.41673345     0.31941913
     0.35416667     0.49365652     0.31941913
     0.35416667     0.57057960     0.31941913
     0.35416667     0.64750268     0.31941913
     0.35416667     0.72442575     0.31941913
     0.35416667     0.80134883     0.31941913
     0.35416667     0.87827191     0.31941913
     0.35416667     0.95519498     0.31941913
     0.39583333     0.03211806     0.31941913
     0.39583333     0.10904114     0.31941913
     0.39583333     0.18596422     0.31941913
     0.39583333     0.26288729     0.31941913
     0.39583333     0.33981037     0.31941913
     0.39583333     0.41673345     0.31941913
     0.39583333     0.49365652     0.31941913
     0.39583333     0.57057960     0.31941913
     0.39583333     0.64750268     0.31941913
     0.39583333     0.72442575     0.31941913
     0.39583333     0.80134883     0.31941913
     0.39583333     0.87827191     0.31941913
     0.39583333     0.95519498     0.31941913
     0.43750000     0.03211806     0.31941913
     0.43750000     0.10904114     0.31941913
     0.43750000     0.18596422     0.31941913
     0.43750000     0.26288729     0.31941913
     0.43750000     0.33981037     0.31941913
     0.43750000     0.41673345     0.31941913
     0.43750000     0.49365652     0.31941913
     0.43750000     0.57057960     0.31941913
     0.43750000     0.64750268     0.31941913
     0.43750000     0.72442575     0.31941913
     0.43750000     0.80134883     0.31941913
     0.43750000     0.87827191     0.31941913
     0.43750000     0.95519498     0.31941913
     0.47916667     0.03211806     0.31941913
     0.47916667     0.10904114     0.31941913
     0.47916667     0.18596422     0.31941913
     0.47916667     0.26288729     0.31941913
     0.47916667     0.33981037     0.31941913
     0.47916667     0.41673345     0.31941913
     0.47916667     0.49365652     0.31941913
     0.47916667     0.57057960     0.31941913
     0.47916667     0.64750268     0.31941913
     0.47916667     0.72442575     0.31941913
     0.47916667     0.80134883     0.31941913
     0.47916667     0.87827191     0.31941913
     0.47916667     0.95519498     0.31941913
     0.52083333     0.03211806     0.31941913
     0.52083333     0.10904114     0.31941913
     0.52083333     0.18596422     0.31941913
     0.52083333     0.26288729     0.31941913
     0.52083333     0.33981037     0.31941913
     0.52083333     0.41673345     0.31941913
     0.52083333     0.49365652     0.31941913
     0.52083333     0.57057960     0.31941913
     0.52083333     0.64750268     0.31941913
     0.52083333     0.72442575     0.31941913
     0.52083333     0.80134883     0.31941913
     0.52083333     0.87827191     0.31941913
     0.52083333     0.95519498     0.31941913
     0.56250000     0.03211806     0.31941913
     0.56250000     0.10904114     0.31941913
     0.56250000     0.18596422     0.31941913
     0.56250000     0.26288729     0.31941913
     0.56250000     0.33981037     0.31941913
     0.56250000     0.41673345     0.31941913
     0.56250000     0.49365652     0.31941913
     0.56250000     0.57057960     0.31941913
     0.56250000     0.64750268     0.31941913
     0.56250000     0.72442575     0.31941913
     0.56250000     0.80134883     0.31941913
     0.56250000     0.87827191     0.31941913
     0.56250000     0.95519498     0.31941913
     0.60416667     0.03211806     0.31941913
     0.60416667     0.10904114     0.31941913
     0.60416667     0.18596422     0.31941913
     0.60416667     0.26288729     0.31941913
     0.60416667     0.33981037     0.31941913
     0.60416667     0.41673345     0.31941913
     0.60416667     0.49365652     0.31941913
     0.60416667     0.57057960     0.31941913
     0.60416667     0.64750268     0.31941913
     0.60416667     0.72442575     0.31941913
     0.60416667     0.80134883     0.31941913
     0.60416667     0.87827191     0.31941913
     0.60416667     0.95519498     0.31941913
     0.64583333     0.03211806     0.31941913
     0.64583333     0.10904114     0.31941913
     0.64583333     0.18596422     0.31941913
     0.64583333     0.26288729     0.31941913
     0.64583333     0.33981037     0.31941913
     0.64583333     0.41673345     0.31941913
     0.64583333     0.49365652     0.31941913
     0.64583333     0.57057960     0.31941913
     0.64583333     0.64750268     0.31941913
     0.64583333     0.72442575     0.31941913
     0.64583333     0.80134883     0.31941913
     0.64583333     0.87827191     0.31941913
     0.64583333     0.95519498     0.31941913
     0.68750000     0.03211806     0.31941913
     0.68750000     0.10904114     0.31941913
     0.68750000     0.18596422     0.31941913
     0.68750000     0.26288729     0.31941913
     0.68750000     0.33981037     0.31941913
     0.68750000     0.41673345     0.31941913
     0.68750000     0.49365652     0.31941913
     0.68750000     0.57057960     0.31941913
     0.68750000     0.64750268     0.31941913
     0.68750000     0.72442575     0.31941913
     0.68750000     0.80134883     0.31941913
     0.68750000     0.87827191     0.31941913
     0.68750000     0.95519498     0.31941913
     0.72916667     0.03211806     0.31941913
     0.72916667     0.10904114     0.31941913
     0.72916667     0.18596422     0.31941913
     0.72916667     0.26288729     0.31941913
     0.72916667     0.33981037     0.31941913
     0.72916667     0.41673345     0.31941913
     0.72916667     0.49365652     0.31941913
     0.72916667     0.57057960     0.31941913
     0.72916667     0.64750268     0.31941913
     0.72916667     0.72442575     0.31941913
     0.72916667     0.80134883     0.31941913
     0.72916667     0.87827191     0.31941913
     0.72916667     0.95519498     0.31941913
     0.77083333     0.03211806     0.31941913
     0.77083333     0.10904114     0.31941913
     0.77083333     0.18596422     0.31941913
     0.77083333     0.26288729     0.31941913
     0.77083333     0.33981037     0.31941913
     0.77083333     0.41673345     0.31941913
     0.77083333     0.49365652     0.31941913
     0.77083333     0.57057960     0.31941913
     0.77083333     0.64750268     0.31941913
     0.77083333     0.72442575     0.31941913
     0.77083333     0.80134883     0.31941913
     0.77083333     0.87827191     0.31941913
     0.77083333     0.95519498     0.31941913
     0.81250000     0.03211806     0.31941913
     0.81250000     0.10904114     0.31941913
     0.81250000     0.18596422     0.31941913
     0.81250000     0.26288729     0.31941913
     0.81250000     0.33981037     0.31941913
     0.81250000     0.41673345     0.31941913
     0.81250000     0.49365652     0.31941913
     0.81250000     0.57057960     0.31941913
     0.81250000     0.64750268     0.31941913
     0.81250000     0.72442575     0.31941913
     0.81250000     0.80134883     0.31941913
     0.81250000     0.87827191     0.31941913
     0.81250000     0.95519498     0.31941913
     0.85416667     0.03211806     0.31941913
     0.85416667     0.10904114     0.31941913
     0.85416667     0.18596422     0.31941913
     0.85416667     0.26288729     0.31941913
     0.85416667     0.33981037     0.31941913
     0.85416667     0.41673345     0.31941913
     0.85416667     0.49365652     0.31941913
     0.85416667     0.57057960     0.31941913
     0.85416667     0.64750268     0.31941913
     0.85416667     0.72442575     0.31941913
     0.85416667     0.80134883     0.31941913
     0.85416667     0.87827191     0.31941913
     0.85416667     0.95519498     0.31941913
     0.89583333     0.03211806     0.31941913
     0.89583333     0.10904114     0.31941913
     0.89583333     0.18596422     0.31941913
     0.89583333     0.26288729     0.31941913
     0.89583333     0.33981037     0.31941913
     0.89583333     0.41673345     0.31941913
     0.89583333     0.49365652     0.31941913
     0.89583333     0.57057960     0.31941913
     0.89583333     0.64750268     0.31941913
     0.89583333     0.72442575     0.31941913
     0.89583333     0.80134883     0.31941913
     0.89583333     0.87827191     0.31941913
     0.89583333     0.95519498     0.31941913
     0.93750000     0.03211806     0.31941913
     0.93750000     0.10904114     0.31941913
     0.93750000     0.18596422     0.31941913
     0.93750000     0.26288729     0.31941913
     0.93750000     0.33981037     0.31941913
     0.93750000     0.41673345     0.31941913
     0.93750000     0.49365652     0.31941913
     0.93750000     0.57057960     0.31941913
     0.93750000     0.64750268     0.31941913
     0.93750000     0.72442575     0.31941913
     0.93750000     0.80134883     0.31941913
     0.93750000     0.87827191     0.31941913
     0.93750000     0.95519498     0.31941913
     0.97916667     0.03211806     0.31941913
     0.97916667     0.10904114     0.31941913
     0.97916667     0.18596422     0.31941913
     0.97916667     0.26288729     0.31941913
     0.97916667     0.33981037     0.31941913
     0.97916667     0.41673345     0.31941913
     0.97916667     0.49365652     0.31941913
     0.97916667     0.57057960     0.31941913
     0.97916667     0.64750268     0.31941913
     0.97916667     0.72442575     0.31941913
     0.97916667     0.80134883     0.31941913
     0.97916667     0.87827191     0.31941913
     0.97916667     0.95519498     0.31941913
     0.04166667     0.00634348     0.31941913
     0.04166667     0.08326655     0.31941913
     0.04166667     0.16018963     0.31941913
     0.04166667     0.23711271     0.31941913
     0.04166667     0.31403579     0.31941913
     0.04166667     0.39095886     0.31941913
     0.04166667     0.46788194     0.31941913
     0.04166667     0.54480502     0.31941913
     0.04166667     0.62172809     0.31941913
     0.04166667     0.69865117     0.31941913
     0.04166667     0.77557425     0.31941913
     0.04166667     0.85249732     0.31941913
     0.04166667     0.92942040     0.31941913
     0.08333333     0.00634348     0.31941913
     0.08333333     0.08326655     0.31941913
     0.08333333     0.16018963     0.31941913
     0.08333333     0.23711271     0.31941913
     0.08333333     0.31403579     0.31941913
     0.08333333     0.39095886     0.31941913
     0.08333333     0.46788194     0.31941913
     0.08333333     0.54480502     0.31941913
     0.08333333     0.62172809     0.31941913
     0.08333333     0.69865117     0.31941913