Generated by Twist2D
    1.0
     148.36498357       0.00000000       0.00000000
       0.00000000     110.76215822       0.00000000
       0.00000000       0.00000000      20.00000000
    P
    9004
Direct
     0.01111111     0.02327706     0.42564718
     0.01111111     0.06327706     0.42564718
     0.01111111     0.10327706     0.42564718
     0.01111111     0.14327706     0.42564718
     0.01111111     0.18327706     0.42564718
     0.01111111     0.22327706     0.42564718
     0.01111111     0.26327706     0.42564718
     0.01111111     0.30327706     0.42564718
     0.01111111     0.34327706     0.42564718
     0.01111111     0.38327706     0.42564718
     0.01111111     0.42327706     0.42564718
     0.01111111     0.46327706     0.42564718
     0.01111111     0.50327706     0.42564718
     0.01111111     0.54327706     0.42564718
     0.01111111     0.58327706     0.42564718
     0.01111111     0.62327706     0.42564718
     0.01111111     0.66327706     0.42564718
     0.01111111     0.70327706     0.42564718
     0.01111111     0.74327706     0.42564718
     0.01111111     0.78327706     0.42564718
     0.01111111     0.82327706     0.42564718
     0.01111111     0.86327706     0.42564718
     0.01111111     0.90327706     0.42564718
     0.01111111     0.94327706     0.42564718
     0.01111111     0.98327706     0.42564718
     0.03333333     0.02327706     0.42564718
     0.03333333     0.06327706     0.42564718
     0.03333333     0.10327706     0.42564718
     0.03333333     0.14327706     0.42564718
     0.03333333     0.18327706     0.42564718
     0.03333333     0.22327706     0.42564718
     0.03333333     0.26327706     0.42564718
     0.03333333     0.30327706     0.42564718
     0.03333333     0.34327706     0.42564718
     0.03333333     0.38327706     0.42564718
     0.03333333     0.42327706     0.42564718
     0.03333333     0.46327706     0.42564718
     0.03333333     0.50327706     0.42564718
     0.03333333     0.54327706     0.42564718
     0.03333333     0.58327706     0.42564718
     0.03333333     0.62327706     0.42564718
     0.03333333     0.66327706     0.42564718
     0.03333333     0.70327706     0.42564718
     0.03333333     0.74327706     0.42564718
     0.03333333     0.78327706     0.42564718
     0.03333333     0.82327706     0.42564718
     0.03333333     0.86327706     0.42564718
     0.03333333     0.90327706     0.42564718
     0.03333333     0.94327706     0.42564718
     0.03333333     0.98327706     0.42564718
     0.05555556     0.02327706     0.42564718
     0.05555556     0.06327706     0.42564718
     0.05555556     0.10327706     0.42564718
     0.05555556     0.14327706     0.42564718
     0.05555556     0.18327706     0.42564718
     0.05555556     0.22327706     0.42564718
     0.05555556     0.26327706     0.42564718
     0.05555556     0.30327706     0.42564718
     0.05555556     0.34327706     0.42564718
     0.05555556     0.38327706     0.42564718
     0.05555556     0.42327706     0.42564718
     0.05555556     0.46327706     0.42564718
     0.05555556     0.50327706     0.42564718
     0.05555556     0.54327706     0.42564718
     0.05555556     0.58327706     0.42564718
     0.05555556     0.62327706     0.42564718
     0.05555556     0.66327706     0.42564718
     0.05555556     0.70327706     0.42564718
     0.05555556     0.74327706     0.42564718
     0.05555556     0.78327706     0.42564718
     0.05555556     0.82327706     0.42564718
     0.05555556     0.86327706     0.42564718
     0.05555556     0.90327706     0.42564718
     0.05555556     0.94327706     0.42564718
     0.05555556     0.98327706     0.42564718
     0.07777778     0.02327706     0.42564718
     0.07777778     0.06327706     0.42564718
     0.07777778     0.10327706     0.42564718
     0.07777778     0.14327706     0.42564718
     0.07777778     0.18327706     0.42564718
     0.07777778     0.22327706     0.42564718
     0.07777778     0.26327706     0.42564718
     0.07777778     0.30327706     0.42564718
     0.07777778     0.34327706     0.42564718
     0.07777778     0.38327706     0.42564718
     0.07777778     0.42327706     0.42564718
     0.07777778     0.46327706     0.42564718
     0.07777778     0.50327706     0.42564718
     0.07777778     0.54327706     0.42564718
     0.07777778     0.58327706     0.42564718
     0.07777778     0.62327706     0.42564718
     0.07777778     0.66327706     0.42564718
     0.07777778     0.70327706     0.42564718
     0.07777778     0.74327706     0.42564718
     0.07777778     0.78327706     0.42564718
     0.07777778     0.82327706     0.42564718
     0.07777778     0.86327706     0.42564718
     0.07777778     0.90327706     0.42564718
     0.07777778     0.94327706     0.42564718
     0.07777778     0.98327706     0.42564718
     0.10000000     0.02327706     0.42564718
     0.10000000     0.06327706     0.42564718
     0.10000000     0.10327706     0.42564718
     0.10000000     0.14327706     0.42564718
     0.10000000     0.18327706     0.42564718
     0.10000000     0.22327706     0.42564718
     0.10000000     0.26327706     0.42564718
     0.10000000     0.30327706     0.42564718
     0.10000000     0.34327706     0.42564718
     0.10000000     0.38327706     0.42564718
     0.10000000     0.42327706     0.42564718
     0.10000000     0.46327706     0.42564718
     0.10000000     0.50327706     0.42564718
     0.10000000     0.54327706     0.42564718
     0.10000000     0.58327706     0.42564718
     0.10000000     0.62327706     0.42564718
     0.10000000     0.66327706     0.42564718
     0.10000000     0.70327706     0.42564718
     0.10000000     0.74327706     0.42564718
     0.10000000     0.78327706     0.42564718
     0.10000000     0.82327706     0.42564718
     0.10000000     0.86327706     0.42564718
     0.10000000     0.90327706     0.42564718
     0.10000000     0.94327706     0.42564718
     0.10000000     0.98327706     0.42564718
     0.12222222     0.02327706     0.42564718
     0.12222222     0.06327706     0.42564718
     0.12222222     0.10327706     0.42564718
     0.12222222     0.14327706     0.42564718
     0.12222222     0.18327706     0.42564718
     0.12222222     0.22327706     0.42564718
     0.12222222     0.26327706     0.42564718
     0.12222222     0.30327706     0.42564718
     0.12222222     0.34327706     0.42564718
     0.12222222     0.38327706     0.42564718
     0.12222222     0.42327706     0.42564718
     0.12222222     0.46327706     0.42564718
     0.12222222     0.50327706     0.42564718
     0.12222222     0.54327706     0.42564718
     0.12222222     0.58327706     0.42564718
     0.12222222     0.62327706     0.42564718
     0.12222222     0.66327706     0.42564718
     0.12222222     0.70327706     0.42564718
     0.12222222     0.74327706     0.42564718
     0.12222222     0.78327706     0.42564718
     0.12222222     0.82327706     0.42564718
     0.12222222     0.86327706     0.42564718
     0.12222222     0.90327706     0.42564718
     0.12222222     0.94327706     0.42564718
     0.12222222     0.98327706     0.42564718
     0.14444444     0.02327706     0.42564718
     0.14444444     0.06327706     0.42564718
     0.14444444     0.10327706     0.42564718
     0.14444444     0.14327706     0.42564718
     0.14444444     0.18327706     0.42564718
     0.14444444     0.22327706     0.42564718
     0.14444444     0.26327706     0.42564718
     0.14444444     0.30327706     0.42564718
     0.14444444     0.34327706     0.42564718
     0.14444444     0.38327706     0.42564718
     0.14444444     0.42327706     0.42564718
     0.14444444     0.46327706     0.42564718
     0.14444444     0.50327706     0.42564718
     0.14444444     0.54327706     0.42564718
     0.14444444     0.58327706     0.42564718
     0.14444444     0.62327706     0.42564718
     0.14444444     0.66327706     0.42564718
     0.14444444     0.70327706     0.42564718
     0.14444444     0.74327706     0.42564718
     0.14444444     0.78327706     0.42564718
     0.14444444     0.82327706     0.42564718
     0.14444444     0.86327706     0.42564718
     0.14444444     0.90327706     0.42564718
     0.14444444     0.94327706     0.42564718
     0.14444444     0.98327706     0.42564718
     0.16666667     0.02327706     0.42564718
     0.16666667     0.06327706     0.42564718
     0.16666667     0.10327706     0.42564718
     0.16666667     0.14327706     0.42564718
     0.16666667     0.18327706     0.42564718
     0.16666667     0.22327706     0.42564718
     0.16666667     0.26327706     0.42564718
     0.16666667     0.30327706     0.42564718
     0.16666667     0.34327706     0.42564718
     0.16666667     0.38327706     0.42564718
     0.16666667     0.42327706     0.42564718
     0.16666667     0.46327706     0.42564718
     0.16666667     0.50327706     0.42564718
     0.16666667     0.54327706     0.42564718
     0.16666667     0.58327706     0.42564718
     0.16666667     0.62327706     0.42564718
     0.16666667     0.66327706     0.42564718
     0.16666667     0.70327706     0.42564718
     0.16666667     0.74327706     0.42564718
     0.16666667     0.78327706     0.42564718
     0.16666667     0.82327706     0.42564718
     0.16666667     0.86327706     0.42564718
     0.16666667     0.90327706     0.42564718
     0.16666667     0.94327706     0.42564718
     0.16666667     0.98327706     0.42564718
     0.18888889     0.02327706     0.42564718
     0.18888889     0.06327706     0.42564718
     0.18888889     0.10327706     0.42564718
     0.18888889     0.14327706     0.42564718
     0.18888889     0.18327706     0.42564718
     0.18888889     0.22327706     0.42564718
     0.18888889     0.26327706     0.42564718
     0.18888889     0.30327706     0.42564718
     0.18888889     0.34327706     0.42564718
     0.18888889     0.38327706     0.42564718
     0.18888889     0.42327706     0.42564718
     0.18888889     0.46327706     0.42564718
     0.18888889     0.50327706     0.42564718
     0.18888889     0.54327706     0.42564718
     0.18888889     0.58327706     0.42564718
     0.18888889     0.62327706     0.42564718
     0.18888889     0.66327706     0.42564718
     0.18888889     0.70327706     0.42564718
     0.18888889     0.74327706     0.42564718
     0.18888889     0.78327706     0.42564718
     0.18888889     0.82327706     0.42564718
     0.18888889     0.86327706     0.42564718
     0.18888889     0.90327706     0.42564718
     0.18888889     0.94327706     0.42564718
     0.18888889     0.98327706     0.42564718
     0.21111111     0.02327706     0.42564718
     0.21111111     0.06327706     0.42564718
     0.21111111     0.10327706     0.42564718
     0.21111111     0.14327706     0.42564718
     0.21111111     0.18327706     0.42564718
     0.21111111     0.22327706     0.42564718
     0.21111111     0.26327706     0.42564718
     0.21111111     0.30327706     0.42564718
     0.21111111     0.34327706     0.42564718
     0.21111111     0.38327706     0.42564718
     0.21111111     0.42327706     0.42564718
     0.21111111     0.46327706     0.42564718
     0.21111111     0.50327706     0.42564718
     0.21111111     0.54327706     0.42564718
     0.21111111     0.58327706     0.42564718
     0.21111111     0.62327706     0.42564718
     0.21111111     0.66327706     0.42564718
     0.21111111     0.70327706     0.42564718
     0.21111111     0.74327706     0.42564718
     0.21111111     0.78327706     0.42564718
     0.21111111     0.82327706     0.42564718
     0.21111111     0.86327706     0.42564718
     0.21111111     0.90327706     0.42564718
     0.21111111     0.94327706     0.42564718
     0.21111111     0.98327706     0.42564718
     0.23333333     0.02327706     0.42564718
     0.23333333     0.06327706     0.42564718
     0.23333333     0.10327706     0.42564718
     0.23333333     0.14327706     0.42564718
     0.23333333     0.18327706     0.42564718
     0.23333333     0.22327706     0.42564718
     0.23333333     0.26327706     0.42564718
     0.23333333     0.30327706     0.42564718
     0.23333333     0.34327706     0.42564718
     0.23333333     0.38327706     0.42564718
     0.23333333     0.42327706     0.42564718
     0.23333333     0.46327706     0.42564718
     0.23333333     0.50327706     0.42564718
     0.23333333     0.54327706     0.42564718
     0.23333333     0.58327706     0.42564718
     0.23333333     0.62327706     0.42564718
     0.23333333     0.66327706     0.42564718
     0.23333333     0.70327706     0.42564718
     0.23333333     0.74327706     0.42564718
     0.23333333     0.78327706     0.42564718
     0.23333333     0.82327706     0.42564718
     0.23333333     0.86327706     0.42564718
     0.23333333     0.90327706     0.42564718
     0.23333333     0.94327706     0.42564718
     0.23333333     0.98327706     0.42564718
     0.25555556     0.02327706     0.42564718
     0.25555556     0.06327706     0.42564718
     0.25555556     0.10327706     0.42564718
     0.25555556     0.14327706     0.42564718
     0.25555556     0.18327706     0.42564718
     0.25555556     0.22327706     0.42564718
     0.25555556     0.26327706     0.42564718
     0.25555556     0.30327706     0.42564718
     0.25555556     0.34327706     0.42564718
     0.25555556     0.38327706     0.42564718
     0.25555556     0.42327706     0.42564718
     0.25555556     0.46327706     0.42564718
     0.25555556     0.50327706     0.42564718
     0.25555556     0.54327706     0.42564718
     0.25555556     0.58327706     0.42564718
     0.25555556     0.62327706     0.42564718
     0.25555556     0.66327706     0.42564718
     0.25555556     0.70327706     0.42564718
     0.25555556     0.74327706     0.42564718
     0.25555556     0.78327706     0.42564718
     0.25555556     0.82327706     0.42564718
     0.25555556     0.86327706     0.42564718
     0.25555556     0.90327706     0.42564718
     0.25555556     0.94327706     0.42564718
     0.25555556     0.98327706     0.42564718
     0.27777778     0.02327706     0.42564718
     0.27777778     0.06327706     0.42564718
     0.27777778     0.10327706     0.42564718
     0.27777778     0.14327706     0.42564718
     0.27777778     0.18327706     0.42564718
     0.27777778     0.22327706     0.42564718
     0.27777778     0.26327706     0.42564718
     0.27777778     0.30327706     0.42564718
     0.27777778     0.34327706     0.42564718
     0.27777778     0.38327706     0.42564718
     0.27777778     0.42327706     0.42564718
     0.27777778     0.46327706     0.42564718
     0.27777778     0.50327706     0.42564718
     0.27777778     0.54327706     0.42564718
     0.27777778     0.58327706     0.42564718
     0.27777778     0.62327706     0.42564718
     0.27777778     0.66327706     0.42564718
     0.27777778     0.70327706     0.42564718
     0.27777778     0.74327706     0.42564718
     0.27777778     0.78327706     0.42564718
     0.27777778     0.82327706     0.42564718
     0.27777778     0.86327706     0.42564718
     0.27777778     0.90327706     0.42564718
     0.27777778     0.94327706     0.42564718
     0.27777778     0.98327706     0.42564718
     0.30000000     0.02327706     0.42564718
     0.30000000     0.06327706     0.42564718
     0.30000000     0.10327706     0.42564718
     0.30000000     0.14327706     0.42564718
     0.30000000     0.18327706     0.42564718
     0.30000000     0.22327706     0.42564718
     0.30000000     0.26327706     0.42564718
     0.30000000     0.30327706     0.42564718
     0.30000000     0.34327706     0.42564718
     0.30000000     0.38327706     0.42564718
     0.30000000     0.42327706     0.42564718
     0.30000000     0.46327706     0.42564718
     0.30000000     0.50327706     0.42564718
     0.30000000     0.54327706     0.42564718
     0.30000000     0.58327706     0.42564718
     0.30000000     0.62327706     0.42564718
     0.30000000     0.66327706     0.42564718
     0.30000000     0.70327706     0.42564718
     0.30000000     0.74327706     0.42564718
     0.30000000     0.78327706     0.42564718
     0.30000000     0.82327706     0.42564718
     0.30000000     0.86327706     0.42564718
     0.30000000     0.90327706     0.42564718
     0.30000000     0.94327706     0.42564718
     0.30000000     0.98327706     0.42564718
     0.32222222     0.02327706     0.42564718
     0.32222222     0.06327706     0.42564718
     0.32222222     0.10327706     0.42564718
     0.32222222     0.14327706     0.42564718
     0.32222222     0.18327706     0.42564718
     0.32222222     0.22327706     0.42564718
     0.32222222     0.26327706     0.42564718
     0.32222222     0.30327706     0.42564718
     0.32222222     0.34327706     0.42564718
     0.32222222     0.38327706     0.42564718
     0.32222222     0.42327706     0.42564718
     0.32222222     0.46327706     0.42564718
     0.32222222     0.50327706     0.42564718
     0.32222222     0.54327706     0.42564718
     0.32222222     0.58327706     0.42564718
     0.32222222     0.62327706     0.42564718
     0.32222222     0.66327706     0.42564718
     0.32222222     0.70327706     0.42564718
     0.32222222     0.74327706     0.42564718
     0.32222222     0.78327706     0.42564718
     0.32222222     0.82327706     0.42564718
     0.32222222     0.86327706     0.42564718
     0.32222222     0.90327706     0.42564718
     0.32222222     0.94327706     0.42564718
     0.32222222     0.98327706     0.42564718
     0.34444444     0.02327706     0.42564718
     0.34444444     0.06327706     0.42564718
     0.34444444     0.10327706     0.42564718
     0.34444444     0.14327706     0.42564718
     0.34444444     0.18327706     0.42564718
     0.34444444     0.22327706     0.42564718
     0.34444444     0.26327706     0.42564718
     0.34444444     0.30327706     0.42564718
     0.34444444     0.34327706     0.42564718
     0.34444444     0.38327706     0.42564718
     0.34444444     0.42327706     0.42564718
     0.34444444     0.46327706     0.42564718
     0.34444444     0.50327706     0.42564718
     0.34444444     0.54327706     0.42564718
     0.34444444     0.58327706     0.42564718
     0.34444444     0.62327706     0.42564718
     0.34444444     0.66327706     0.42564718
     0.34444444     0.70327706     0.42564718
     0.34444444     0.74327706     0.42564718
     0.34444444     0.78327706     0.42564718
     0.34444444     0.82327706     0.42564718
     0.34444444     0.86327706     0.42564718
     0.34444444     0.90327706     0.42564718
     0.34444444     0.94327706     0.42564718
     0.34444444     0.98327706     0.42564718
     0.36666667     0.02327706     0.42564718
     0.36666667     0.06327706     0.42564718
     0.36666667     0.10327706     0.42564718
     0.36666667     0.14327706     0.42564718
     0.36666667     0.18327706     0.42564718
     0.36666667     0.22327706     0.42564718
     0.36666667     0.26327706     0.42564718
     0.36666667     0.30327706     0.42564718
     0.36666667     0.34327706     0.42564718
     0.36666667     0.38327706     0.42564718
     0.36666667     0.42327706     0.42564718
     0.36666667     0.46327706     0.42564718
     0.36666667     0.50327706     0.42564718
     0.36666667     0.54327706     0.42564718
     0.36666667     0.58327706     0.42564718
     0.36666667     0.62327706     0.42564718
     0.36666667     0.66327706     0.42564718
     0.36666667     0.70327706     0.42564718
     0.36666667     0.74327706     0.42564718
     0.36666667     0.78327706     0.42564718
     0.36666667     0.82327706     0.42564718
     0.36666667     0.86327706     0.42564718
     0.36666667     0.90327706     0.42564718
     0.36666667     0.94327706     0.42564718
     0.36666667     0.98327706     0.42564718
     0.38888889     0.02327706     0.42564718
     0.38888889     0.06327706     0.42564718
     0.38888889     0.10327706     0.42564718
     0.38888889     0.14327706     0.42564718
     0.38888889     0.18327706     0.42564718
     0.38888889     0.22327706     0.42564718
     0.38888889     0.26327706     0.42564718
     0.38888889     0.30327706     0.42564718
     0.38888889     0.34327706     0.42564718
     0.38888889     0.38327706     0.42564718
     0.38888889     0.42327706     0.42564718
     0.38888889     0.46327706     0.42564718
     0.38888889     0.50327706     0.42564718
     0.38888889     0.54327706     0.42564718
     0.38888889     0.58327706     0.42564718
     0.38888889     0.62327706     0.42564718
     0.38888889     0.66327706     0.42564718
     0.38888889     0.70327706     0.42564718
     0.38888889     0.74327706     0.42564718
     0.38888889     0.78327706     0.42564718
     0.38888889     0.82327706     0.42564718
     0.38888889     0.86327706     0.42564718
     0.38888889     0.90327706     0.42564718
     0.38888889     0.94327706     0.42564718
     0.38888889     0.98327706     0.42564718
     0.41111111     0.02327706     0.42564718
     0.41111111     0.06327706     0.42564718
     0.41111111     0.10327706     0.42564718
     0.41111111     0.14327706     0.42564718
     0.41111111     0.18327706     0.42564718
     0.41111111     0.22327706     0.42564718
     0.41111111     0.26327706     0.42564718
     0.41111111     0.30327706     0.42564718
     0.41111111     0.34327706     0.42564718
     0.41111111     0.38327706     0.42564718
     0.41111111     0.42327706     0.42564718
     0.41111111     0.46327706     0.42564718
     0.41111111     0.50327706     0.42564718
     0.41111111     0.54327706     0.42564718
     0.41111111     0.58327706     0.42564718
     0.41111111     0.62327706     0.42564718
     0.41111111     0.66327706     0.42564718
     0.41111111     0.70327706     0.42564718
     0.41111111     0.74327706     0.42564718
     0.41111111     0.78327706     0.42564718
     0.41111111     0.82327706     0.42564718
     0.41111111     0.86327706     0.42564718
     0.41111111     0.90327706     0.42564718
     0.41111111     0.94327706     0.42564718
     0.41111111     0.98327706     0.42564718
     0.43333333     0.02327706     0.42564718
     0.43333333     0.06327706     0.42564718
     0.43333333     0.10327706     0.42564718
     0.43333333     0.14327706     0.42564718
     0.43333333     0.18327706     0.42564718
     0.43333333     0.22327706     0.42564718
     0.43333333     0.26327706     0.42564718
     0.43333333     0.30327706     0.42564718
     0.43333333     0.34327706     0.42564718
     0.43333333     0.38327706     0.42564718
     0.43333333     0.42327706     0.42564718
     0.43333333     0.46327706     0.42564718
     0.43333333     0.50327706     0.42564718
     0.43333333     0.54327706     0.42564718
     0.43333333     0.58327706     0.42564718
     0.43333333     0.62327706     0.42564718
     0.43333333     0.66327706     0.42564718
     0.43333333     0.70327706     0.42564718
     0.43333333     0.74327706     0.42564718
     0.43333333     0.78327706     0.42564718
     0.43333333     0.82327706     0.42564718
     0.43333333     0.86327706     0.42564718
     0.43333333     0.90327706     0.42564718
     0.43333333     0.94327706     0.42564718
     0.43333333     0.98327706     0.42564718
     0.45555556     0.02327706     0.42564718
     0.45555556     0.06327706     0.42564718
     0.45555556     0.10327706     0.42564718
     0.45555556     0.14327706     0.42564718
     0.45555556     0.18327706     0.42564718
     0.45555556     0.22327706     0.42564718
     0.45555556     0.26327706     0.42564718
     0.45555556     0.30327706     0.42564718
     0.45555556     0.34327706     0.42564718
     0.45555556     0.38327706     0.42564718
     0.45555556     0.42327706     0.42564718
     0.45555556     0.46327706     0.42564718
     0.45555556     0.50327706     0.42564718
     0.45555556     0.54327706     0.42564718
     0.45555556     0.58327706     0.42564718
     0.45555556     0.62327706     0.42564718
     0.45555556     0.66327706     0.42564718
     0.45555556     0.70327706     0.42564718
     0.45555556     0.74327706     0.42564718
     0.45555556     0.78327706     0.42564718
     0.45555556     0.82327706     0.42564718
     0.45555556     0.86327706     0.42564718
     0.45555556     0.90327706     0.42564718
     0.45555556     0.94327706     0.42564718
     0.45555556     0.98327706     0.42564718
     0.47777778     0.02327706     0.42564718
     0.47777778     0.06327706     0.42564718
     0.47777778     0.10327706     0.42564718
     0.47777778     0.14327706     0.42564718
     0.47777778     0.18327706     0.42564718
     0.47777778     0.22327706     0.42564718
     0.47777778     0.26327706     0.42564718
     0.47777778     0.30327706     0.42564718
     0.47777778     0.34327706     0.42564718
     0.47777778     0.38327706     0.42564718
     0.47777778     0.42327706     0.42564718
     0.47777778     0.46327706     0.42564718
     0.47777778     0.50327706     0.42564718
     0.47777778     0.54327706     0.42564718
     0.47777778     0.58327706     0.42564718
     0.47777778     0.62327706     0.42564718
     0.47777778     0.66327706     0.42564718
     0.47777778     0.70327706     0.42564718
     0.47777778     0.74327706     0.42564718
     0.47777778     0.78327706     0.42564718
     0.47777778     0.82327706     0.42564718
     0.47777778     0.86327706     0.42564718
     0.47777778     0.90327706     0.42564718
     0.47777778     0.94327706     0.42564718
     0.47777778     0.98327706     0.42564718
     0.50000000     0.02327706     0.42564718
     0.50000000     0.06327706     0.42564718
     0.50000000     0.10327706     0.42564718
     0.50000000     0.14327706     0.42564718
     0.50000000     0.18327706     0.42564718
     0.50000000     0.22327706     0.42564718
     0.50000000     0.26327706     0.42564718
     0.50000000     0.30327706     0.42564718
     0.50000000     0.34327706     0.42564718
     0.50000000     0.38327706     0.42564718
     0.50000000     0.42327706     0.42564718
     0.50000000     0.46327706     0.42564718
     0.50000000     0.50327706     0.42564718
     0.50000000     0.54327706     0.42564718
     0.50000000     0.58327706     0.42564718
     0.50000000     0.62327706     0.42564718
     0.50000000     0.66327706     0.42564718
     0.50000000     0.70327706     0.42564718
     0.50000000     0.74327706     0.42564718
     0.50000000     0.78327706     0.42564718
     0.50000000     0.82327706     0.42564718
     0.50000000     0.86327706     0.42564718
     0.50000000     0.90327706     0.42564718
     0.50000000     0.94327706     0.42564718
     0.50000000     0.98327706     0.42564718
     0.52222222     0.02327706     0.42564718
     0.52222222     0.06327706     0.42564718
     0.52222222     0.10327706     0.42564718
     0.52222222     0.14327706     0.42564718
     0.52222222     0.18327706     0.42564718
     0.52222222     0.22327706     0.42564718
     0.52222222     0.26327706     0.42564718
     0.52222222     0.30327706     0.42564718
     0.52222222     0.34327706     0.42564718
     0.52222222     0.38327706     0.42564718
     0.52222222     0.42327706     0.42564718
     0.52222222     0.46327706     0.42564718
     0.52222222     0.50327706     0.42564718
     0.52222222     0.54327706     0.42564718
     0.52222222     0.58327706     0.42564718
     0.52222222     0.62327706     0.42564718
     0.52222222     0.66327706     0.42564718
     0.52222222     0.70327706     0.42564718
     0.52222222     0.74327706     0.42564718
     0.52222222     0.78327706     0.42564718
     0.52222222     0.82327706     0.42564718
     0.52222222     0.86327706     0.42564718
     0.52222222     0.90327706     0.42564718
     0.52222222     0.94327706     0.42564718
     0.52222222     0.98327706     0.42564718
     0.54444444     0.02327706     0.42564718
     0.54444444     0.06327706     0.42564718
     0.54444444     0.10327706     0.42564718
     0.54444444     0.14327706     0.42564718
     0.54444444     0.18327706     0.42564718
     0.54444444     0.22327706     0.42564718
     0.54444444     0.26327706     0.42564718
     0.54444444     0.30327706     0.42564718
     0.54444444     0.34327706     0.42564718
     0.54444444     0.38327706     0.42564718
     0.54444444     0.42327706     0.42564718
     0.54444444     0.46327706     0.42564718
     0.54444444     0.50327706     0.42564718
     0.54444444     0.54327706     0.42564718
     0.54444444     0.58327706     0.42564718
     0.54444444     0.62327706     0.42564718
     0.54444444     0.66327706     0.42564718
     0.54444444     0.70327706     0.42564718
     0.54444444     0.74327706     0.42564718
     0.54444444     0.78327706     0.42564718
     0.54444444     0.82327706     0.42564718
     0.54444444     0.86327706     0.42564718
     0.54444444     0.90327706     0.42564718
     0.54444444     0.94327706     0.42564718
     0.54444444     0.98327706     0.42564718
     0.56666667     0.02327706     0.42564718
     0.56666667     0.06327706     0.42564718
     0.56666667     0.10327706     0.42564718
     0.56666667     0.14327706     0.42564718
     0.56666667     0.18327706     0.42564718
     0.56666667     0.22327706     0.42564718
     0.56666667     0.26327706     0.42564718
     0.56666667     0.30327706     0.42564718
     0.56666667     0.34327706     0.42564718
     0.56666667     0.38327706     0.42564718
     0.56666667     0.42327706     0.42564718
     0.56666667     0.46327706     0.42564718
     0.56666667     0.50327706     0.42564718
     0.56666667     0.54327706     0.42564718
     0.56666667     0.58327706     0.42564718
     0.56666667     0.62327706     0.42564718
     0.56666667     0.66327706     0.42564718
     0.56666667     0.70327706     0.42564718
     0.56666667     0.74327706     0.42564718
     0.56666667     0.78327706     0.42564718
     0.56666667     0.82327706     0.42564718
     0.56666667     0.86327706     0.42564718