Generated by Twist2D
    1.0
      36.26699598       0.00000000       0.00000000
       0.00000000      26.58291797       0.00000000
       0.00000000       0.00000000      20.00000000
    P
    532
Direct
     0.04545455     0.09698775     0.42564718
     0.04545455     0.26365442     0.42564718
     0.04545455     0.43032109     0.42564718
     0.04545455     0.59698775     0.42564718
     0.04545455     0.76365442     0.42564718
     0.04545455     0.93032109     0.42564718
     0.13636364     0.09698775     0.42564718
     0.13636364     0.26365442     0.42564718
     0.13636364     0.43032109     0.42564718
     0.13636364     0.59698775     0.42564718
     0.13636364     0.76365442     0.42564718
     0.13636364     0.93032109     0.42564718
     0.22727273     0.09698775     0.42564718
     0.22727273     0.26365442     0.42564718
     0.22727273     0.43032109     0.42564718
     0.22727273     0.59698775     0.42564718
     0.22727273     0.76365442     0.42564718
     0.22727273     0.93032109     0.42564718
     0.31818182     0.09698775     0.42564718
     0.31818182     0.26365442     0.42564718
     0.31818182     0.43032109     0.42564718
     0.31818182     0.59698775     0.42564718
     0.31818182     0.76365442     0.42564718
     0.31818182     0.93032109     0.42564718
     0.40909091     0.09698775     0.42564718
     0.40909091     0.26365442     0.42564718
     0.40909091     0.43032109     0.42564718
     0.40909091     0.59698775     0.42564718
     0.40909091     0.76365442     0.42564718
     0.40909091     0.93032109     0.42564718
     0.50000000     0.09698775     0.42564718
     0.50000000     0.26365442     0.42564718
     0.50000000     0.43032109     0.42564718
     0.50000000     0.59698775     0.42564718
     0.50000000     0.76365442     0.42564718
     0.50000000     0.93032109     0.42564718
     0.59090909     0.09698775     0.42564718
     0.59090909     0.26365442     0.42564718
     0.59090909     0.43032109     0.42564718
     0.59090909     0.59698775     0.42564718
     0.59090909     0.76365442     0.42564718
     0.59090909     0.93032109     0.42564718
     0.68181818     0.09698775     0.42564718
     0.68181818     0.26365442     0.42564718
     0.68181818     0.43032109     0.42564718
     0.68181818     0.59698775     0.42564718
     0.68181818     0.76365442     0.42564718
     0.68181818     0.93032109     0.42564718
     0.77272727     0.09698775     0.42564718
     0.77272727     0.26365442     0.42564718
     0.77272727     0.43032109     0.42564718
     0.77272727     0.59698775     0.42564718
     0.77272727     0.76365442     0.42564718
     0.77272727     0.93032109     0.42564718
     0.86363636     0.09698775     0.42564718
     0.86363636     0.26365442     0.42564718
     0.86363636     0.43032109     0.42564718
     0.86363636     0.59698775     0.42564718
     0.86363636     0.76365442     0.42564718
     0.86363636     0.93032109     0.42564718
     0.95454545     0.09698775     0.42564718
     0.95454545     0.26365442     0.42564718
     0.95454545     0.43032109     0.42564718
     0.95454545     0.59698775     0.42564718
     0.95454545     0.76365442     0.42564718
     0.95454545     0.93032109     0.42564718
     0.04545455     0.06958913     0.31941913
     0.04545455     0.23625580     0.31941913
     0.04545455     0.40292247     0.31941913
     0.04545455     0.56958913     0.31941913
     0.04545455     0.73625580     0.31941913
     0.04545455     0.90292247     0.31941913
     0.13636364     0.06958913     0.31941913
     0.13636364     0.23625580     0.31941913
     0.13636364     0.40292247     0.31941913
     0.13636364     0.56958913     0.31941913
     0.13636364     0.73625580     0.31941913
     0.13636364     0.90292247     0.31941913
     0.22727273     0.06958913     0.31941913
     0.22727273     0.23625580     0.31941913
     0.22727273     0.40292247     0.31941913
     0.22727273     0.56958913     0.31941913
     0.22727273     0.73625580     0.31941913
     0.22727273     0.90292247     0.31941913
     0.31818182     0.06958913     0.31941913
     0.31818182     0.23625580     0.31941913
     0.31818182     0.40292247     0.31941913
     0.31818182     0.56958913     0.31941913
     0.31818182     0.73625580     0.31941913
     0.31818182     0.90292247     0.31941913
     0.40909091     0.06958913     0.31941913
     0.40909091     0.23625580     0.31941913
     0.40909091     0.40292247     0.31941913
     0.40909091     0.56958913     0.31941913
     0.40909091     0.73625580     0.31941913
     0.40909091     0.90292247     0.31941913
     0.50000000     0.06958913     0.31941913
     0.50000000     0.23625580     0.31941913
     0.50000000     0.40292247     0.31941913
     0.50000000     0.56958913     0.31941913
     0.50000000     0.73625580     0.31941913
     0.50000000     0.90292247     0.31941913
     0.59090909     0.06958913     0.31941913
     0.59090909     0.23625580     0.31941913
     0.59090909     0.40292247     0.31941913
     0.59090909     0.56958913     0.31941913
     0.59090909     0.73625580     0.31941913
     0.59090909     0.90292247     0.31941913
     0.68181818     0.06958913     0.31941913
     0.68181818     0.23625580     0.31941913
     0.68181818     0.40292247     0.31941913
     0.68181818     0.56958913     0.31941913
     0.68181818     0.73625580     0.31941913
     0.68181818     0.90292247     0.31941913
     0.77272727     0.06958913     0.31941913
     0.77272727     0.23625580     0.31941913
     0.77272727     0.40292247     0.31941913
     0.77272727     0.56958913     0.31941913
     0.77272727     0.73625580     0.31941913
     0.77272727     0.90292247     0.31941913
     0.86363636     0.06958913     0.31941913
     0.86363636     0.23625580     0.31941913
     0.86363636     0.40292247     0.31941913
     0.86363636     0.56958913     0.31941913
     0.86363636     0.73625580     0.31941913
     0.86363636     0.90292247     0.31941913
     0.95454545     0.06958913     0.31941913
     0.95454545     0.23625580     0.31941913
     0.95454545     0.40292247     0.31941913
     0.95454545     0.56958913     0.31941913
     0.95454545     0.73625580     0.31941913
     0.95454545     0.90292247     0.31941913
     0.09090909     0.01374420     0.31941913
     0.09090909     0.18041087     0.31941913
     0.09090909     0.34707754     0.31941913
     0.09090909     0.51374420     0.31941913
     0.09090909     0.68041087     0.31941913
     0.09090909     0.84707754     0.31941913
     0.18181818     0.01374420     0.31941913
     0.18181818     0.18041087     0.31941913
     0.18181818     0.34707754     0.31941913
     0.18181818     0.51374420     0.31941913
     0.18181818     0.68041087     0.31941913
     0.18181818     0.84707754     0.31941913
     0.27272727     0.01374420     0.31941913
     0.27272727     0.18041087     0.31941913
     0.27272727     0.34707754     0.31941913
     0.27272727     0.51374420     0.31941913
     0.27272727     0.68041087     0.31941913
     0.27272727     0.84707754     0.31941913
     0.36363636     0.01374420     0.31941913
     0.36363636     0.18041087     0.31941913
     0.36363636     0.34707754     0.31941913
     0.36363636     0.51374420     0.31941913
     0.36363636     0.68041087     0.31941913
     0.36363636     0.84707754     0.31941913
     0.45454545     0.01374420     0.31941913
     0.45454545     0.18041087     0.31941913
     0.45454545     0.34707754     0.31941913
     0.45454545     0.51374420     0.31941913
     0.45454545     0.68041087     0.31941913
     0.45454545     0.84707754     0.31941913
     0.54545455     0.01374420     0.31941913
     0.54545455     0.18041087     0.31941913
     0.54545455     0.34707754     0.31941913
     0.54545455     0.51374420     0.31941913
     0.54545455     0.68041087     0.31941913
     0.54545455     0.84707754     0.31941913
     0.63636364     0.01374420     0.31941913
     0.63636364     0.18041087     0.31941913
     0.63636364     0.34707754     0.31941913
     0.63636364     0.51374420     0.31941913
     0.63636364     0.68041087     0.31941913
     0.63636364     0.84707754     0.31941913
     0.72727273     0.01374420     0.31941913
     0.72727273     0.18041087     0.31941913
     0.72727273     0.34707754     0.31941913
     0.72727273     0.51374420     0.31941913
     0.72727273     0.68041087     0.31941913
     0.72727273     0.84707754     0.31941913
     0.81818182     0.01374420     0.31941913
     0.81818182     0.18041087     0.31941913
     0.81818182     0.34707754     0.31941913
     0.81818182     0.51374420     0.31941913
     0.81818182     0.68041087     0.31941913
     0.81818182     0.84707754     0.31941913
     0.90909091     0.01374420     0.31941913
     0.90909091     0.18041087     0.31941913
     0.90909091     0.34707754     0.31941913
     0.90909091     0.51374420     0.31941913
     0.90909091     0.68041087     0.31941913
     0.90909091     0.84707754     0.31941913
     1.00000000     0.01374420     0.31941913
     1.00000000     0.18041087     0.31941913
     1.00000000     0.34707754     0.31941913
     1.00000000     0.51374420     0.31941913
     1.00000000     0.68041087     0.31941913
     1.00000000     0.84707754     0.31941913
     0.09090909     0.15301225     0.42564718
     0.09090909     0.31967891     0.42564718
     0.09090909     0.48634558     0.42564718
     0.09090909     0.65301225     0.42564718
     0.09090909     0.81967891     0.42564718
     0.09090909     0.98634558     0.42564718
     0.18181818     0.15301225     0.42564718
     0.18181818     0.31967891     0.42564718
     0.18181818     0.48634558     0.42564718
     0.18181818     0.65301225     0.42564718
     0.18181818     0.81967891     0.42564718
     0.18181818     0.98634558     0.42564718
     0.27272727     0.15301225     0.42564718
     0.27272727     0.31967891     0.42564718
     0.27272727     0.48634558     0.42564718
     0.27272727     0.65301225     0.42564718
     0.27272727     0.81967891     0.42564718
     0.27272727     0.98634558     0.42564718
     0.36363636     0.15301225     0.42564718
     0.36363636     0.31967891     0.42564718
     0.36363636     0.48634558     0.42564718
     0.36363636     0.65301225     0.42564718
     0.36363636     0.81967891     0.42564718
     0.36363636     0.98634558     0.42564718
     0.45454545     0.15301225     0.42564718
     0.45454545     0.31967891     0.42564718
     0.45454545     0.48634558     0.42564718
     0.45454545     0.65301225     0.42564718
     0.45454545     0.81967891     0.42564718
     0.45454545     0.98634558     0.42564718
     0.54545455     0.15301225     0.42564718
     0.54545455     0.31967891     0.42564718
     0.54545455     0.48634558     0.42564718
     0.54545455     0.65301225     0.42564718
     0.54545455     0.81967891     0.42564718
     0.54545455     0.98634558     0.42564718
     0.63636364     0.15301225     0.42564718
     0.63636364     0.31967891     0.42564718
     0.63636364     0.48634558     0.42564718
     0.63636364     0.65301225     0.42564718
     0.63636364     0.81967891     0.42564718
     0.63636364     0.98634558     0.42564718
     0.72727273     0.15301225     0.42564718
     0.72727273     0.31967891     0.42564718
     0.72727273     0.48634558     0.42564718
     0.72727273     0.65301225     0.42564718
     0.72727273     0.81967891     0.42564718
     0.72727273     0.98634558     0.42564718
     0.81818182     0.15301225     0.42564718
     0.81818182     0.31967891     0.42564718
     0.81818182     0.48634558     0.42564718
     0.81818182     0.65301225     0.42564718
     0.81818182     0.81967891     0.42564718
     0.81818182     0.98634558     0.42564718
     0.90909091     0.15301225     0.42564718
     0.90909091     0.31967891     0.42564718
     0.90909091     0.48634558     0.42564718
     0.90909091     0.65301225     0.42564718
     0.90909091     0.81967891     0.42564718
     0.90909091     0.98634558     0.42564718
     1.00000000     0.15301225     0.42564718
     1.00000000     0.31967891     0.42564718
     1.00000000     0.48634558     0.42564718
     1.00000000     0.65301225     0.42564718
     1.00000000     0.81967891     0.42564718
     1.00000000     0.98634558     0.42564718
    -0.00868547     0.09554018     0.68057335
     0.08086677     0.11046555     0.68057335
     0.06594140     0.27464465     0.68057335
     0.05101602     0.43882376     0.68057335
     0.03609065     0.60300286     0.68057335
     0.02116528     0.76718197     0.68057335
     0.00623990     0.93136107     0.68057335
     0.17041901     0.12539092     0.68057335
     0.15549363     0.28957003     0.68057335
     0.14056826     0.45374913     0.68057335
     0.12564289     0.61792823     0.68057335
     0.11071751     0.78210734     0.68057335
     0.09579214     0.94628644     0.68057335
     0.25997125     0.14031629     0.68057335
     0.24504587     0.30449540     0.68057335
     0.23012050     0.46867450     0.68057335
     0.21519513     0.63285361     0.68057335
     0.20026975     0.79703271     0.68057335
     0.18534438     0.96121182     0.68057335
     0.34952348     0.15524167     0.68057335
     0.33459811     0.31942077     0.68057335
     0.31967274     0.48359988     0.68057335
     0.30474737     0.64777898     0.68057335
     0.28982199     0.81195809     0.68057335
     0.27489662     0.97613719     0.68057335
     0.43907572     0.17016704     0.68057335
     0.42415035     0.33434615     0.68057335
     0.40922498     0.49852525     0.68057335
     0.39429960     0.66270435     0.68057335
     0.37937423     0.82688346     0.68057335
     0.36444886     0.99106256     0.68057335
     0.52862796     0.18509241     0.68057335
     0.51370259     0.34927152     0.68057335
     0.49877722     0.51345062     0.68057335
     0.48385184     0.67762973     0.68057335
     0.46892647     0.84180883     0.68057335
     0.45400110     1.00598794     0.68057335
     0.61818020     0.20001779     0.68057335
     0.60325483     0.36419689     0.68057335
     0.58832945     0.52837600     0.68057335
     0.57340408     0.69255510     0.68057335
     0.55847871     0.85673420     0.68057335
     0.54355334     1.02091331     0.68057335
     0.70773244     0.21494316     0.68057335
     0.69280707     0.37912226     0.68057335
     0.67788169     0.54330137     0.68057335
     0.66295632     0.70748047     0.68057335
     0.64803095     0.87165958     0.68057335
     0.63310557     1.03583868     0.68057335
     0.79728468     0.22986853     0.68057335
     0.78235931     0.39404764     0.68057335
     0.76743393     0.55822674     0.68057335
     0.75250856     0.72240585     0.68057335
     0.73758319     0.88658495     0.68057335
     0.72265781     1.05076406     0.68057335
     0.88683692     0.24479391     0.68057335
     0.87191154     0.40897301     0.68057335
     0.85698617     0.57315212     0.68057335
     0.84206080     0.73733122     0.68057335
     0.82713543     0.90151032     0.68057335
     0.81221005     1.06568943     0.68057335
     0.97638916     0.25971928     0.68057335
     0.96146378     0.42389838     0.68057335
     0.94653841     0.58807749     0.68057335
     0.93161304     0.75225659     0.68057335
     0.91668766     0.91643570     0.68057335
     0.90176229     1.08061480     0.68057335
    -0.00623186     0.06855049     0.57434529
     0.08332038     0.08347586     0.57434529
     0.06839500     0.24765497     0.57434529
     0.05346963     0.41183407     0.57434529
     0.03854426     0.57601318     0.57434529
     0.02361888     0.74019228     0.57434529
     0.00869351     0.90437138     0.57434529
     0.17287261     0.09840124     0.57434529
     0.15794724     0.26258034     0.57434529
     0.14302187     0.42675944     0.57434529
     0.12809650     0.59093855     0.57434529
     0.11317112     0.75511765     0.57434529
     0.09824575     0.91929676     0.57434529
     0.26242485     0.11332661     0.57434529
     0.24749948     0.27750571     0.57434529
     0.23257411     0.44168482     0.57434529
     0.21764873     0.60586392     0.57434529
     0.20272336     0.77004303     0.57434529
     0.18779799     0.93422213     0.57434529
     0.35197709     0.12825198     0.57434529
     0.33705172     0.29243109     0.57434529
     0.32212635     0.45661019     0.57434529
     0.30720097     0.62078929     0.57434529
     0.29227560     0.78496840     0.57434529
     0.27735023     0.94914750     0.57434529
     0.44152933     0.14317735     0.57434529
     0.42660396     0.30735646     0.57434529
     0.41167859     0.47153556     0.57434529
     0.39675321     0.63571467     0.57434529
     0.38182784     0.79989377     0.57434529
     0.36690247     0.96407288     0.57434529
     0.53108157     0.15810273     0.57434529
     0.51615620     0.32228183     0.57434529
     0.50123082     0.48646094     0.57434529
     0.48630545     0.65064004     0.57434529
     0.47138008     0.81481915     0.57434529
     0.45645470     0.97899825     0.57434529
     0.62063381     0.17302810     0.57434529
     0.60570844     0.33720721     0.57434529
     0.59078306     0.50138631     0.57434529
     0.57585769     0.66556541     0.57434529
     0.56093232     0.82974452     0.57434529
     0.54600694     0.99392362     0.57434529
     0.71018605     0.18795347     0.57434529
     0.69526067     0.35213258     0.57434529
     0.68033530     0.51631168     0.57434529
     0.66540993     0.68049079     0.57434529
     0.65048456     0.84466989     0.57434529
     0.63555918     1.00884900     0.57434529
     0.79973829     0.20287885     0.57434529
     0.78481291     0.36705795     0.57434529
     0.76988754     0.53123706     0.57434529
     0.75496217     0.69541616     0.57434529
     0.74003679     0.85959527     0.57434529
     0.72511142     1.02377437     0.57434529
     0.88929053     0.21780422     0.57434529
     0.87436515     0.38198332     0.57434529
     0.85943978     0.54616243     0.57434529
     0.84451441     0.71034153     0.57434529
     0.82958903     0.87452064     0.57434529
     0.81466366     1.03869974     0.57434529
     0.97884276     0.23272959     0.57434529
     0.96391739     0.39690870     0.57434529
     0.94899202     0.56108780     0.57434529
     0.93406664     0.72526691     0.57434529
     0.91914127     0.88944601     0.57434529
     0.90421590     1.05362512     0.57434529
     0.04354530     0.02100175     0.57434529
     0.13309753     0.03592712     0.57434529
     0.11817216     0.20010623     0.57434529
     0.10324679     0.36428533     0.57434529
     0.08832141     0.52846444     0.57434529
     0.07339604     0.69264354     0.57434529
     0.05847067     0.85682265     0.57434529
     0.22264977     0.05085250     0.57434529
     0.20772440     0.21503160     0.57434529
     0.19279903     0.37921071     0.57434529
     0.17787365     0.54338981     0.57434529
     0.16294828     0.70756892     0.57434529
     0.14802291     0.87174802     0.57434529
     0.31220201     0.06577787     0.57434529
     0.29727664     0.22995698     0.57434529
     0.28235127     0.39413608     0.57434529
     0.26742589     0.55831518     0.57434529
     0.25250052     0.72249429     0.57434529
     0.23757515     0.88667339     0.57434529
     0.40175425     0.08070324     0.57434529
     0.38682888     0.24488235     0.57434529
     0.37190350     0.40906145     0.57434529
     0.35697813     0.57324056     0.57434529
     0.34205276     0.73741966     0.57434529
     0.32712738     0.90159877     0.57434529
     0.49130649     0.09562862     0.57434529
     0.47638112     0.25980772     0.57434529
     0.46145574     0.42398683     0.57434529
     0.44653037     0.58816593     0.57434529
     0.43160500     0.75234503     0.57434529
     0.41667962     0.91652414     0.57434529
     0.58085873     0.11055399     0.57434529
     0.56593336     0.27473309     0.57434529
     0.55100798     0.43891220     0.57434529
     0.53608261     0.60309130     0.57434529
     0.52115724     0.76727041     0.57434529
     0.50623186     0.93144951     0.57434529
     0.67041097     0.12547936     0.57434529
     0.65548559     0.28965847     0.57434529
     0.64056022     0.45383757     0.57434529
     0.62563485     0.61801668     0.57434529
     0.61070947     0.78219578     0.57434529
     0.59578410     0.94637489     0.57434529
     0.75996321     0.14040474     0.57434529
     0.74503783     0.30458384     0.57434529
     0.73011246     0.46876295     0.57434529
     0.71518709     0.63294205     0.57434529
     0.70026171     0.79712115     0.57434529
     0.68533634     0.96130026     0.57434529
     0.84951544     0.15533011     0.57434529
     0.83459007     0.31950921     0.57434529
     0.81966470     0.48368832     0.57434529
     0.80473933     0.64786742     0.57434529
     0.78981395     0.81204653     0.57434529
     0.77488858     0.97622563     0.57434529
     0.93906768     0.17025548     0.57434529
     0.92414231     0.33443459     0.57434529
     0.90921694     0.49861369     0.57434529
     0.89429156     0.66279280     0.57434529
     0.87936619     0.82697190     0.57434529
     0.86444082     0.99115100     0.57434529
     1.02861992     0.18518086     0.57434529
     1.01369455     0.34935996     0.57434529
     0.99876918     0.51353906     0.57434529
     0.98384380     0.67771817     0.57434529
     0.96891843     0.84189727     0.57434529
     0.95399306     1.00607638     0.57434529
     0.03107353     0.15819117     0.68057335
     0.12062577     0.17311654     0.68057335
     0.10570040     0.33729565     0.68057335
     0.09077502     0.50147475     0.68057335
     0.07584965     0.66565385     0.68057335
     0.06092428     0.82983296     0.68057335
     0.04599890     0.99401206     0.68057335
     0.21017801     0.18804191     0.68057335
     0.19525263     0.35222102     0.68057335
     0.18032726     0.51640012     0.68057335
     0.16540189     0.68057923     0.68057335
     0.15047652     0.84475833     0.68057335
     0.13555114     1.00893744     0.68057335
     0.29973025     0.20296729     0.68057335
     0.28480487     0.36714639     0.68057335
     0.26987950     0.53132550     0.68057335
     0.25495413     0.69550460     0.68057335
     0.24002875     0.85968371     0.68057335
     0.22510338     1.02386281     0.68057335
     0.38928249     0.21789266     0.68057335
     0.37435711     0.38207177     0.68057335
     0.35943174     0.54625087     0.68057335
     0.34450637     0.71042997     0.68057335
     0.32958099     0.87460908     0.68057335
     0.31465562     1.03878818     0.68057335
     0.47883472     0.23281803     0.68057335
     0.46390935     0.39699714     0.68057335
     0.44898398     0.56117624     0.68057335
     0.43405860     0.72535535     0.68057335
     0.41913323     0.88953445     0.68057335
     0.40420786     1.05371356     0.68057335
     0.56838696     0.24774341     0.68057335
     0.55346159     0.41192251     0.68057335
     0.53853622     0.57610162     0.68057335
     0.52361084     0.74028072     0.68057335
     0.50868547     0.90445982     0.68057335
     0.49376010     1.06863893     0.68057335
     0.65793920     0.26266878     0.68057335
     0.64301383     0.42684788     0.68057335
     0.62808846     0.59102699     0.68057335
     0.61316308     0.75520609     0.68057335
     0.59823771     0.91938520     0.68057335
     0.58331234     1.08356430     0.68057335
     0.74749144     0.27759415     0.68057335
     0.73256607     0.44177326     0.68057335
     0.71764069     0.60595236     0.68057335
     0.70271532     0.77013147     0.68057335
     0.68778995     0.93431057     0.68057335
     0.67286457     1.09848968     0.68057335
     0.83704368     0.29251953     0.68057335
     0.82211831     0.45669863     0.68057335
     0.80719293     0.62087774     0.68057335
     0.79226756     0.78505684     0.68057335
     0.77734219     0.94923594     0.68057335
     0.76241681     1.11341505     0.68057335
     0.92659592     0.30744490     0.68057335
     0.91167055     0.47162400     0.68057335
     0.89674517     0.63580311     0.68057335
     0.88181980     0.79998221     0.68057335
     0.86689443     0.96416132     0.68057335
     0.85196905     1.12834042     0.68057335
     1.01614816     0.32237027     0.68057335
     1.00122278     0.48654938     0.68057335
     0.98629741     0.65072848     0.68057335
     0.97137204     0.81490759     0.68057335
     0.95644666     0.97908669     0.68057335
     0.94152129     1.14326580     0.68057335
