Generated by Twist2D
    1.0
     118.69198686       0.00000000       0.00000000
       0.00000000      88.60972658       0.00000000
       0.00000000       0.00000000      20.00000000
    P
    5764
Direct
     0.01388889     0.02909633     0.42564718
     0.01388889     0.07909633     0.42564718
     0.01388889     0.12909633     0.42564718
     0.01388889     0.17909633     0.42564718
     0.01388889     0.22909633     0.42564718
     0.01388889     0.27909633     0.42564718
     0.01388889     0.32909633     0.42564718
     0.01388889     0.37909633     0.42564718
     0.01388889     0.42909633     0.42564718
     0.01388889     0.47909633     0.42564718
     0.01388889     0.52909633     0.42564718
     0.01388889     0.57909633     0.42564718
     0.01388889     0.62909633     0.42564718
     0.01388889     0.67909633     0.42564718
     0.01388889     0.72909633     0.42564718
     0.01388889     0.77909633     0.42564718
     0.01388889     0.82909633     0.42564718
     0.01388889     0.87909633     0.42564718
     0.01388889     0.92909633     0.42564718
     0.01388889     0.97909633     0.42564718
     0.04166667     0.02909633     0.42564718
     0.04166667     0.07909633     0.42564718
     0.04166667     0.12909633     0.42564718
     0.04166667     0.17909633     0.42564718
     0.04166667     0.22909633     0.42564718
     0.04166667     0.27909633     0.42564718
     0.04166667     0.32909633     0.42564718
     0.04166667     0.37909633     0.42564718
     0.04166667     0.42909633     0.42564718
     0.04166667     0.47909633     0.42564718
     0.04166667     0.52909633     0.42564718
     0.04166667     0.57909633     0.42564718
     0.04166667     0.62909633     0.42564718
     0.04166667     0.67909633     0.42564718
     0.04166667     0.72909633     0.42564718
     0.04166667     0.77909633     0.42564718
     0.04166667     0.82909633     0.42564718
     0.04166667     0.87909633     0.42564718
     0.04166667     0.92909633     0.42564718
     0.04166667     0.97909633     0.42564718
     0.06944444     0.02909633     0.42564718
     0.06944444     0.07909633     0.42564718
     0.06944444     0.12909633     0.42564718
     0.06944444     0.17909633     0.42564718
     0.06944444     0.22909633     0.42564718
     0.06944444     0.27909633     0.42564718
     0.06944444     0.32909633     0.42564718
     0.06944444     0.37909633     0.42564718
     0.06944444     0.42909633     0.42564718
     0.06944444     0.47909633     0.42564718
     0.06944444     0.52909633     0.42564718
     0.06944444     0.57909633     0.42564718
     0.06944444     0.62909633     0.42564718
     0.06944444     0.67909633     0.42564718
     0.06944444     0.72909633     0.42564718
     0.06944444     0.77909633     0.42564718
     0.06944444     0.82909633     0.42564718
     0.06944444     0.87909633     0.42564718
     0.06944444     0.92909633     0.42564718
     0.06944444     0.97909633     0.42564718
     0.09722222     0.02909633     0.42564718
     0.09722222     0.07909633     0.42564718
     0.09722222     0.12909633     0.42564718
     0.09722222     0.17909633     0.42564718
     0.09722222     0.22909633     0.42564718
     0.09722222     0.27909633     0.42564718
     0.09722222     0.32909633     0.42564718
     0.09722222     0.37909633     0.42564718
     0.09722222     0.42909633     0.42564718
     0.09722222     0.47909633     0.42564718
     0.09722222     0.52909633     0.42564718
     0.09722222     0.57909633     0.42564718
     0.09722222     0.62909633     0.42564718
     0.09722222     0.67909633     0.42564718
     0.09722222     0.72909633     0.42564718
     0.09722222     0.77909633     0.42564718
     0.09722222     0.82909633     0.42564718
     0.09722222     0.87909633     0.42564718
     0.09722222     0.92909633     0.42564718
     0.09722222     0.97909633     0.42564718
     0.12500000     0.02909633     0.42564718
     0.12500000     0.07909633     0.42564718
     0.12500000     0.12909633     0.42564718
     0.12500000     0.17909633     0.42564718
     0.12500000     0.22909633     0.42564718
     0.12500000     0.27909633     0.42564718
     0.12500000     0.32909633     0.42564718
     0.12500000     0.37909633     0.42564718
     0.12500000     0.42909633     0.42564718
     0.12500000     0.47909633     0.42564718
     0.12500000     0.52909633     0.42564718
     0.12500000     0.57909633     0.42564718
     0.12500000     0.62909633     0.42564718
     0.12500000     0.67909633     0.42564718
     0.12500000     0.72909633     0.42564718
     0.12500000     0.77909633     0.42564718
     0.12500000     0.82909633     0.42564718
     0.12500000     0.87909633     0.42564718
     0.12500000     0.92909633     0.42564718
     0.12500000     0.97909633     0.42564718
     0.15277778     0.02909633     0.42564718
     0.15277778     0.07909633     0.42564718
     0.15277778     0.12909633     0.42564718
     0.15277778     0.17909633     0.42564718
     0.15277778     0.22909633     0.42564718
     0.15277778     0.27909633     0.42564718
     0.15277778     0.32909633     0.42564718
     0.15277778     0.37909633     0.42564718
     0.15277778     0.42909633     0.42564718
     0.15277778     0.47909633     0.42564718
     0.15277778     0.52909633     0.42564718
     0.15277778     0.57909633     0.42564718
     0.15277778     0.62909633     0.42564718
     0.15277778     0.67909633     0.42564718
     0.15277778     0.72909633     0.42564718
     0.15277778     0.77909633     0.42564718
     0.15277778     0.82909633     0.42564718
     0.15277778     0.87909633     0.42564718
     0.15277778     0.92909633     0.42564718
     0.15277778     0.97909633     0.42564718
     0.18055556     0.02909633     0.42564718
     0.18055556     0.07909633     0.42564718
     0.18055556     0.12909633     0.42564718
     0.18055556     0.17909633     0.42564718
     0.18055556     0.22909633     0.42564718
     0.18055556     0.27909633     0.42564718
     0.18055556     0.32909633     0.42564718
     0.18055556     0.37909633     0.42564718
     0.18055556     0.42909633     0.42564718
     0.18055556     0.47909633     0.42564718
     0.18055556     0.52909633     0.42564718
     0.18055556     0.57909633     0.42564718
     0.18055556     0.62909633     0.42564718
     0.18055556     0.67909633     0.42564718
     0.18055556     0.72909633     0.42564718
     0.18055556     0.77909633     0.42564718
     0.18055556     0.82909633     0.42564718
     0.18055556     0.87909633     0.42564718
     0.18055556     0.92909633     0.42564718
     0.18055556     0.97909633     0.42564718
     0.20833333     0.02909633     0.42564718
     0.20833333     0.07909633     0.42564718
     0.20833333     0.12909633     0.42564718
     0.20833333     0.17909633     0.42564718
     0.20833333     0.22909633     0.42564718
     0.20833333     0.27909633     0.42564718
     0.20833333     0.32909633     0.42564718
     0.20833333     0.37909633     0.42564718
     0.20833333     0.42909633     0.42564718
     0.20833333     0.47909633     0.42564718
     0.20833333     0.52909633     0.42564718
     0.20833333     0.57909633     0.42564718
     0.20833333     0.62909633     0.42564718
     0.20833333     0.67909633     0.42564718
     0.20833333     0.72909633     0.42564718
     0.20833333     0.77909633     0.42564718
     0.20833333     0.82909633     0.42564718
     0.20833333     0.87909633     0.42564718
     0.20833333     0.92909633     0.42564718
     0.20833333     0.97909633     0.42564718
     0.23611111     0.02909633     0.42564718
     0.23611111     0.07909633     0.42564718
     0.23611111     0.12909633     0.42564718
     0.23611111     0.17909633     0.42564718
     0.23611111     0.22909633     0.42564718
     0.23611111     0.27909633     0.42564718
     0.23611111     0.32909633     0.42564718
     0.23611111     0.37909633     0.42564718
     0.23611111     0.42909633     0.42564718
     0.23611111     0.47909633     0.42564718
     0.23611111     0.52909633     0.42564718
     0.23611111     0.57909633     0.42564718
     0.23611111     0.62909633     0.42564718
     0.23611111     0.67909633     0.42564718
     0.23611111     0.72909633     0.42564718
     0.23611111     0.77909633     0.42564718
     0.23611111     0.82909633     0.42564718
     0.23611111     0.87909633     0.42564718
     0.23611111     0.92909633     0.42564718
     0.23611111     0.97909633     0.42564718
     0.26388889     0.02909633     0.42564718
     0.26388889     0.07909633     0.42564718
     0.26388889     0.12909633     0.42564718
     0.26388889     0.17909633     0.42564718
     0.26388889     0.22909633     0.42564718
     0.26388889     0.27909633     0.42564718
     0.26388889     0.32909633     0.42564718
     0.26388889     0.37909633     0.42564718
     0.26388889     0.42909633     0.42564718
     0.26388889     0.47909633     0.42564718
     0.26388889     0.52909633     0.42564718
     0.26388889     0.57909633     0.42564718
     0.26388889     0.62909633     0.42564718
     0.26388889     0.67909633     0.42564718
     0.26388889     0.72909633     0.42564718
     0.26388889     0.77909633     0.42564718
     0.26388889     0.82909633     0.42564718
     0.26388889     0.87909633     0.42564718
     0.26388889     0.92909633     0.42564718
     0.26388889     0.97909633     0.42564718
     0.29166667     0.02909633     0.42564718
     0.29166667     0.07909633     0.42564718
     0.29166667     0.12909633     0.42564718
     0.29166667     0.17909633     0.42564718
     0.29166667     0.22909633     0.42564718
     0.29166667     0.27909633     0.42564718
     0.29166667     0.32909633     0.42564718
     0.29166667     0.37909633     0.42564718
     0.29166667     0.42909633     0.42564718
     0.29166667     0.47909633     0.42564718
     0.29166667     0.52909633     0.42564718
     0.29166667     0.57909633     0.42564718
     0.29166667     0.62909633     0.42564718
     0.29166667     0.67909633     0.42564718
     0.29166667     0.72909633     0.42564718
     0.29166667     0.77909633     0.42564718
     0.29166667     0.82909633     0.42564718
     0.29166667     0.87909633     0.42564718
     0.29166667     0.92909633     0.42564718
     0.29166667     0.97909633     0.42564718
     0.31944444     0.02909633     0.42564718
     0.31944444     0.07909633     0.42564718
     0.31944444     0.12909633     0.42564718
     0.31944444     0.17909633     0.42564718
     0.31944444     0.22909633     0.42564718
     0.31944444     0.27909633     0.42564718
     0.31944444     0.32909633     0.42564718
     0.31944444     0.37909633     0.42564718
     0.31944444     0.42909633     0.42564718
     0.31944444     0.47909633     0.42564718
     0.31944444     0.52909633     0.42564718
     0.31944444     0.57909633     0.42564718
     0.31944444     0.62909633     0.42564718
     0.31944444     0.67909633     0.42564718
     0.31944444     0.72909633     0.42564718
     0.31944444     0.77909633     0.42564718
     0.31944444     0.82909633     0.42564718
     0.31944444     0.87909633     0.42564718
     0.31944444     0.92909633     0.42564718
     0.31944444     0.97909633     0.42564718
     0.34722222     0.02909633     0.42564718
     0.34722222     0.07909633     0.42564718
     0.34722222     0.12909633     0.42564718
     0.34722222     0.17909633     0.42564718
     0.34722222     0.22909633     0.42564718
     0.34722222     0.27909633     0.42564718
     0.34722222     0.32909633     0.42564718
     0.34722222     0.37909633     0.42564718
     0.34722222     0.42909633     0.42564718
     0.34722222     0.47909633     0.42564718
     0.34722222     0.52909633     0.42564718
     0.34722222     0.57909633     0.42564718
     0.34722222     0.62909633     0.42564718
     0.34722222     0.67909633     0.42564718
     0.34722222     0.72909633     0.42564718
     0.34722222     0.77909633     0.42564718
     0.34722222     0.82909633     0.42564718
     0.34722222     0.87909633     0.42564718
     0.34722222     0.92909633     0.42564718
     0.34722222     0.97909633     0.42564718
     0.37500000     0.02909633     0.42564718
     0.37500000     0.07909633     0.42564718
     0.37500000     0.12909633     0.42564718
     0.37500000     0.17909633     0.42564718
     0.37500000     0.22909633     0.42564718
     0.37500000     0.27909633     0.42564718
     0.37500000     0.32909633     0.42564718
     0.37500000     0.37909633     0.42564718
     0.37500000     0.42909633     0.42564718
     0.37500000     0.47909633     0.42564718
     0.37500000     0.52909633     0.42564718
     0.37500000     0.57909633     0.42564718
     0.37500000     0.62909633     0.42564718
     0.37500000     0.67909633     0.42564718
     0.37500000     0.72909633     0.42564718
     0.37500000     0.77909633     0.42564718
     0.37500000     0.82909633     0.42564718
     0.37500000     0.87909633     0.42564718
     0.37500000     0.92909633     0.42564718
     0.37500000     0.97909633     0.42564718
     0.40277778     0.02909633     0.42564718
     0.40277778     0.07909633     0.42564718
     0.40277778     0.12909633     0.42564718
     0.40277778     0.17909633     0.42564718
     0.40277778     0.22909633     0.42564718
     0.40277778     0.27909633     0.42564718
     0.40277778     0.32909633     0.42564718
     0.40277778     0.37909633     0.42564718
     0.40277778     0.42909633     0.42564718
     0.40277778     0.47909633     0.42564718
     0.40277778     0.52909633     0.42564718
     0.40277778     0.57909633     0.42564718
     0.40277778     0.62909633     0.42564718
     0.40277778     0.67909633     0.42564718
     0.40277778     0.72909633     0.42564718
     0.40277778     0.77909633     0.42564718
     0.40277778     0.82909633     0.42564718
     0.40277778     0.87909633     0.42564718
     0.40277778     0.92909633     0.42564718
     0.40277778     0.97909633     0.42564718
     0.43055556     0.02909633     0.42564718
     0.43055556     0.07909633     0.42564718
     0.43055556     0.12909633     0.42564718
     0.43055556     0.17909633     0.42564718
     0.43055556     0.22909633     0.42564718
     0.43055556     0.27909633     0.42564718
     0.43055556     0.32909633     0.42564718
     0.43055556     0.37909633     0.42564718
     0.43055556     0.42909633     0.42564718
     0.43055556     0.47909633     0.42564718
     0.43055556     0.52909633     0.42564718
     0.43055556     0.57909633     0.42564718
     0.43055556     0.62909633     0.42564718
     0.43055556     0.67909633     0.42564718
     0.43055556     0.72909633     0.42564718
     0.43055556     0.77909633     0.42564718
     0.43055556     0.82909633     0.42564718
     0.43055556     0.87909633     0.42564718
     0.43055556     0.92909633     0.42564718
     0.43055556     0.97909633     0.42564718
     0.45833333     0.02909633     0.42564718
     0.45833333     0.07909633     0.42564718
     0.45833333     0.12909633     0.42564718
     0.45833333     0.17909633     0.42564718
     0.45833333     0.22909633     0.42564718
     0.45833333     0.27909633     0.42564718
     0.45833333     0.32909633     0.42564718
     0.45833333     0.37909633     0.42564718
     0.45833333     0.42909633     0.42564718
     0.45833333     0.47909633     0.42564718
     0.45833333     0.52909633     0.42564718
     0.45833333     0.57909633     0.42564718
     0.45833333     0.62909633     0.42564718
     0.45833333     0.67909633     0.42564718
     0.45833333     0.72909633     0.42564718
     0.45833333     0.77909633     0.42564718
     0.45833333     0.82909633     0.42564718
     0.45833333     0.87909633     0.42564718
     0.45833333     0.92909633     0.42564718
     0.45833333     0.97909633     0.42564718
     0.48611111     0.02909633     0.42564718
     0.48611111     0.07909633     0.42564718
     0.48611111     0.12909633     0.42564718
     0.48611111     0.17909633     0.42564718
     0.48611111     0.22909633     0.42564718
     0.48611111     0.27909633     0.42564718
     0.48611111     0.32909633     0.42564718
     0.48611111     0.37909633     0.42564718
     0.48611111     0.42909633     0.42564718
     0.48611111     0.47909633     0.42564718
     0.48611111     0.52909633     0.42564718
     0.48611111     0.57909633     0.42564718
     0.48611111     0.62909633     0.42564718
     0.48611111     0.67909633     0.42564718
     0.48611111     0.72909633     0.42564718
     0.48611111     0.77909633     0.42564718
     0.48611111     0.82909633     0.42564718
     0.48611111     0.87909633     0.42564718
     0.48611111     0.92909633     0.42564718
     0.48611111     0.97909633     0.42564718
     0.51388889     0.02909633     0.42564718
     0.51388889     0.07909633     0.42564718
     0.51388889     0.12909633     0.42564718
     0.51388889     0.17909633     0.42564718
     0.51388889     0.22909633     0.42564718
     0.51388889     0.27909633     0.42564718
     0.51388889     0.32909633     0.42564718
     0.51388889     0.37909633     0.42564718
     0.51388889     0.42909633     0.42564718
     0.51388889     0.47909633     0.42564718
     0.51388889     0.52909633     0.42564718
     0.51388889     0.57909633     0.42564718
     0.51388889     0.62909633     0.42564718
     0.51388889     0.67909633     0.42564718
     0.51388889     0.72909633     0.42564718
     0.51388889     0.77909633     0.42564718
     0.51388889     0.82909633     0.42564718
     0.51388889     0.87909633     0.42564718
     0.51388889     0.92909633     0.42564718
     0.51388889     0.97909633     0.42564718
     0.54166667     0.02909633     0.42564718
     0.54166667     0.07909633     0.42564718
     0.54166667     0.12909633     0.42564718
     0.54166667     0.17909633     0.42564718
     0.54166667     0.22909633     0.42564718
     0.54166667     0.27909633     0.42564718
     0.54166667     0.32909633     0.42564718
     0.54166667     0.37909633     0.42564718
     0.54166667     0.42909633     0.42564718
     0.54166667     0.47909633     0.42564718
     0.54166667     0.52909633     0.42564718
     0.54166667     0.57909633     0.42564718
     0.54166667     0.62909633     0.42564718
     0.54166667     0.67909633     0.42564718
     0.54166667     0.72909633     0.42564718
     0.54166667     0.77909633     0.42564718
     0.54166667     0.82909633     0.42564718
     0.54166667     0.87909633     0.42564718
     0.54166667     0.92909633     0.42564718
     0.54166667     0.97909633     0.42564718
     0.56944444     0.02909633     0.42564718
     0.56944444     0.07909633     0.42564718
     0.56944444     0.12909633     0.42564718
     0.56944444     0.17909633     0.42564718
     0.56944444     0.22909633     0.42564718
     0.56944444     0.27909633     0.42564718
     0.56944444     0.32909633     0.42564718
     0.56944444     0.37909633     0.42564718
     0.56944444     0.42909633     0.42564718
     0.56944444     0.47909633     0.42564718
     0.56944444     0.52909633     0.42564718
     0.56944444     0.57909633     0.42564718
     0.56944444     0.62909633     0.42564718
     0.56944444     0.67909633     0.42564718
     0.56944444     0.72909633     0.42564718
     0.56944444     0.77909633     0.42564718
     0.56944444     0.82909633     0.42564718
     0.56944444     0.87909633     0.42564718
     0.56944444     0.92909633     0.42564718
     0.56944444     0.97909633     0.42564718
     0.59722222     0.02909633     0.42564718
     0.59722222     0.07909633     0.42564718
     0.59722222     0.12909633     0.42564718
     0.59722222     0.17909633     0.42564718
     0.59722222     0.22909633     0.42564718
     0.59722222     0.27909633     0.42564718
     0.59722222     0.32909633     0.42564718
     0.59722222     0.37909633     0.42564718
     0.59722222     0.42909633     0.42564718
     0.59722222     0.47909633     0.42564718
     0.59722222     0.52909633     0.42564718
     0.59722222     0.57909633     0.42564718
     0.59722222     0.62909633     0.42564718
     0.59722222     0.67909633     0.42564718
     0.59722222     0.72909633     0.42564718
     0.59722222     0.77909633     0.42564718
     0.59722222     0.82909633     0.42564718
     0.59722222     0.87909633     0.42564718
     0.59722222     0.92909633     0.42564718
     0.59722222     0.97909633     0.42564718
     0.62500000     0.02909633     0.42564718
     0.62500000     0.07909633     0.42564718
     0.62500000     0.12909633     0.42564718
     0.62500000     0.17909633     0.42564718
     0.62500000     0.22909633     0.42564718
     0.62500000     0.27909633     0.42564718
     0.62500000     0.32909633     0.42564718
     0.62500000     0.37909633     0.42564718
     0.62500000     0.42909633     0.42564718
     0.62500000     0.47909633     0.42564718
     0.62500000     0.52909633     0.42564718
     0.62500000     0.57909633     0.42564718
     0.62500000     0.62909633     0.42564718
     0.62500000     0.67909633     0.42564718
     0.62500000     0.72909633     0.42564718
     0.62500000     0.77909633     0.42564718
     0.62500000     0.82909633     0.42564718
     0.62500000     0.87909633     0.42564718
     0.62500000     0.92909633     0.42564718
     0.62500000     0.97909633     0.42564718
     0.65277778     0.02909633     0.42564718
     0.65277778     0.07909633     0.42564718
     0.65277778     0.12909633     0.42564718
     0.65277778     0.17909633     0.42564718
     0.65277778     0.22909633     0.42564718
     0.65277778     0.27909633     0.42564718
     0.65277778     0.32909633     0.42564718
     0.65277778     0.37909633     0.42564718
     0.65277778     0.42909633     0.42564718
     0.65277778     0.47909633     0.42564718
     0.65277778     0.52909633     0.42564718
     0.65277778     0.57909633     0.42564718
     0.65277778     0.62909633     0.42564718
     0.65277778     0.67909633     0.42564718
     0.65277778     0.72909633     0.42564718
     0.65277778     0.77909633     0.42564718
     0.65277778     0.82909633     0.42564718
     0.65277778     0.87909633     0.42564718
     0.65277778     0.92909633     0.42564718
     0.65277778     0.97909633     0.42564718
     0.68055556     0.02909633     0.42564718
     0.68055556     0.07909633     0.42564718
     0.68055556     0.12909633     0.42564718
     0.68055556     0.17909633     0.42564718
     0.68055556     0.22909633     0.42564718
     0.68055556     0.27909633     0.42564718
     0.68055556     0.32909633     0.42564718
     0.68055556     0.37909633     0.42564718
     0.68055556     0.42909633     0.42564718
     0.68055556     0.47909633     0.42564718
     0.68055556     0.52909633     0.42564718
     0.68055556     0.57909633     0.42564718
     0.68055556     0.62909633     0.42564718
     0.68055556     0.67909633     0.42564718
     0.68055556     0.72909633     0.42564718
     0.68055556     0.77909633     0.42564718
     0.68055556     0.82909633     0.42564718
     0.68055556     0.87909633     0.42564718
     0.68055556     0.92909633     0.42564718
     0.68055556     0.97909633     0.42564718
     0.70833333     0.02909633     0.42564718
     0.70833333     0.07909633     0.42564718
     0.70833333     0.12909633     0.42564718
     0.70833333     0.17909633     0.42564718
     0.70833333     0.22909633     0.42564718
     0.70833333     0.27909633     0.42564718
     0.70833333     0.32909633     0.42564718
     0.70833333     0.37909633     0.42564718
     0.70833333     0.42909633     0.42564718
     0.70833333     0.47909633     0.42564718
     0.70833333     0.52909633     0.42564718
     0.70833333     0.57909633     0.42564718
     0.70833333     0.62909633     0.42564718
     0.70833333     0.67909633     0.42564718
     0.70833333     0.72909633     0.42564718
     0.70833333     0.77909633     0.42564718
     0.70833333     0.82909633     0.42564718
     0.70833333     0.87909633     0.42564718
     0.70833333     0.92909633     0.42564718
     0.70833333     0.97909633     0.42564718
     0.73611111     0.02909633     0.42564718
     0.73611111     0.07909633     0.42564718
     0.73611111     0.12909633     0.42564718
     0.73611111     0.17909633     0.42564718
     0.73611111     0.22909633     0.42564718
     0.73611111     0.27909633     0.42564718
     0.73611111     0.32909633     0.42564718
     0.73611111     0.37909633     0.42564718
     0.73611111     0.42909633     0.42564718
     0.73611111     0.47909633     0.42564718
     0.73611111     0.52909633     0.42564718
     0.73611111     0.57909633     0.42564718
     0.73611111     0.62909633     0.42564718
     0.73611111     0.67909633     0.42564718
     0.73611111     0.72909633     0.42564718
     0.73611111     0.77909633     0.42564718
     0.73611111     0.82909633     0.42564718
     0.73611111     0.87909633     0.42564718
     0.73611111     0.92909633     0.42564718
     0.73611111     0.97909633     0.42564718
     0.76388889     0.02909633     0.42564718
     0.76388889     0.07909633     0.42564718
     0.76388889     0.12909633     0.42564718
     0.76388889     0.17909633     0.42564718
     0.76388889     0.22909633     0.42564718
     0.76388889     0.27909633     0.42564718
     0.76388889     0.32909633     0.42564718
     0.76388889     0.37909633     0.42564718
     0.76388889     0.42909633     0.42564718
     0.76388889     0.47909633     0.42564718
     0.76388889     0.52909633     0.42564718
     0.76388889     0.57909633     0.42564718
     0.76388889     0.62909633     0.42564718
     0.76388889     0.67909633     0.42564718
     0.76388889     0.72909633     0.42564718
     0.76388889     0.77909633     0.42564718
     0.76388889     0.82909633     0.42564718
     0.76388889     0.87909633     0.42564718
     0.76388889     0.92909633     0.42564718
     0.76388889     0.97909633     0.42564718
     0.79166667     0.02909633     0.42564718
     0.79166667     0.07909633     0.42564718
     0.79166667     0.12909633     0.42564718
     0.79166667     0.17909633     0.42564718
     0.79166667     0.22909633     0.42564718
     0.79166667     0.27909633     0.42564718
     0.79166667     0.32909633     0.42564718
     0.79166667     0.37909633     0.42564718
     0.79166667     0.42909633     0.42564718
     0.79166667     0.47909633     0.42564718
     0.79166667     0.52909633     0.42564718
     0.79166667     0.57909633     0.42564718
     0.79166667     0.62909633     0.42564718
     0.79166667     0.67909633     0.42564718
     0.79166667     0.72909633     0.42564718
     0.79166667     0.77909633     0.42564718
     0.79166667     0.82909633     0.42564718
     0.79166667     0.87909633     0.42564718
     0.79166667     0.92909633     0.42564718
     0.79166667     0.97909633     0.42564718
     0.81944444     0.02909633     0.42564718
     0.81944444     0.07909633     0.42564718
     0.81944444     0.12909633     0.42564718
     0.81944444     0.17909633     0.42564718
     0.81944444     0.22909633     0.42564718
     0.81944444     0.27909633     0.42564718
     0.81944444     0.32909633     0.42564718
     0.81944444     0.37909633     0.42564718
     0.81944444     0.42909633     0.42564718
     0.81944444     0.47909633     0.42564718
     0.81944444     0.52909633     0.42564718
     0.81944444     0.57909633     0.42564718
     0.81944444     0.62909633     0.42564718
     0.81944444     0.67909633     0.42564718
     0.81944444     0.72909633     0.42564718
     0.81944444     0.77909633     0.42564718
     0.81944444     0.82909633     0.42564718
     0.81944444     0.87909633     0.42564718
     0.81944444     0.92909633     0.42564718
     0.81944444     0.97909633     0.42564718
     0.84722222     0.02909633     0.42564718
     0.84722222     0.07909633     0.42564718
     0.84722222     0.12909633     0.42564718
     0.84722222     0.17909633     0.42564718
     0.84722222     0.22909633     0.42564718
     0.84722222     0.27909633     0.42564718
     0.84722222     0.32909633     0.42564718
     0.84722222     0.37909633     0.42564718
     0.84722222     0.42909633     0.42564718
     0.84722222     0.47909633     0.42564718
     0.84722222     0.52909633     0.42564718
     0.84722222     0.57909633     0.42564718
     0.84722222     0.62909633     0.42564718
     0.84722222     0.67909633     0.42564718
     0.84722222     0.72909633     0.42564718
     0.84722222     0.77909633     0.42564718
     0.84722222     0.82909633     0.42564718
     0.84722222     0.87909633     0.42564718
     0.84722222     0.92909633     0.42564718
     0.84722222     0.97909633     0.42564718
     0.87500000     0.02909633     0.42564718
     0.87500000     0.07909633     0.42564718
     0.87500000     0.12909633     0.42564718
     0.87500000     0.17909633     0.42564718
     0.87500000     0.22909633     0.42564718
     0.87500000     0.27909633     0.42564718
     0.87500000     0.32909633     0.42564718
     0.87500000     0.37909633     0.42564718
     0.87500000     0.42909633     0.42564718
     0.87500000     0.47909633     0.42564718
     0.87500000     0.52909633     0.42564718
     0.87500000     0.57909633     0.42564718
     0.87500000     0.62909633     0.42564718
     0.87500000     0.67909633     0.42564718
     0.87500000     0.72909633     0.42564718
     0.87500000     0.77909633     0.42564718
     0.87500000     0.82909633     0.42564718
     0.87500000     0.87909633     0.42564718
     0.87500000     0.92909633     0.42564718
     0.87500000     0.97909633     0.42564718
     0.90277778     0.02909633     0.42564718
     0.90277778     0.07909633     0.42564718
     0.90277778     0.12909633     0.42564718
     0.90277778     0.17909633     0.42564718
     0.90277778     0.22909633     0.42564718
     0.90277778     0.27909633     0.42564718
     0.90277778     0.32909633     0.42564718