Generated by Twist2D
    1.0
     145.06798394       0.00000000       0.00000000
       0.00000000     110.76215822       0.00000000
       0.00000000       0.00000000      20.00000000
    P
    8804
Direct
     0.01136364     0.02327706     0.42564718
     0.01136364     0.06327706     0.42564718
     0.01136364     0.10327706     0.42564718
     0.01136364     0.14327706     0.42564718
     0.01136364     0.18327706     0.42564718
     0.01136364     0.22327706     0.42564718
     0.01136364     0.26327706     0.42564718
     0.01136364     0.30327706     0.42564718
     0.01136364     0.34327706     0.42564718
     0.01136364     0.38327706     0.42564718
     0.01136364     0.42327706     0.42564718
     0.01136364     0.46327706     0.42564718
     0.01136364     0.50327706     0.42564718
     0.01136364     0.54327706     0.42564718
     0.01136364     0.58327706     0.42564718
     0.01136364     0.62327706     0.42564718
     0.01136364     0.66327706     0.42564718
     0.01136364     0.70327706     0.42564718
     0.01136364     0.74327706     0.42564718
     0.01136364     0.78327706     0.42564718
     0.01136364     0.82327706     0.42564718
     0.01136364     0.86327706     0.42564718
     0.01136364     0.90327706     0.42564718
     0.01136364     0.94327706     0.42564718
     0.01136364     0.98327706     0.42564718
     0.03409091     0.02327706     0.42564718
     0.03409091     0.06327706     0.42564718
     0.03409091     0.10327706     0.42564718
     0.03409091     0.14327706     0.42564718
     0.03409091     0.18327706     0.42564718
     0.03409091     0.22327706     0.42564718
     0.03409091     0.26327706     0.42564718
     0.03409091     0.30327706     0.42564718
     0.03409091     0.34327706     0.42564718
     0.03409091     0.38327706     0.42564718
     0.03409091     0.42327706     0.42564718
     0.03409091     0.46327706     0.42564718
     0.03409091     0.50327706     0.42564718
     0.03409091     0.54327706     0.42564718
     0.03409091     0.58327706     0.42564718
     0.03409091     0.62327706     0.42564718
     0.03409091     0.66327706     0.42564718
     0.03409091     0.70327706     0.42564718
     0.03409091     0.74327706     0.42564718
     0.03409091     0.78327706     0.42564718
     0.03409091     0.82327706     0.42564718
     0.03409091     0.86327706     0.42564718
     0.03409091     0.90327706     0.42564718
     0.03409091     0.94327706     0.42564718
     0.03409091     0.98327706     0.42564718
     0.05681818     0.02327706     0.42564718
     0.05681818     0.06327706     0.42564718
     0.05681818     0.10327706     0.42564718
     0.05681818     0.14327706     0.42564718
     0.05681818     0.18327706     0.42564718
     0.05681818     0.22327706     0.42564718
     0.05681818     0.26327706     0.42564718
     0.05681818     0.30327706     0.42564718
     0.05681818     0.34327706     0.42564718
     0.05681818     0.38327706     0.42564718
     0.05681818     0.42327706     0.42564718
     0.05681818     0.46327706     0.42564718
     0.05681818     0.50327706     0.42564718
     0.05681818     0.54327706     0.42564718
     0.05681818     0.58327706     0.42564718
     0.05681818     0.62327706     0.42564718
     0.05681818     0.66327706     0.42564718
     0.05681818     0.70327706     0.42564718
     0.05681818     0.74327706     0.42564718
     0.05681818     0.78327706     0.42564718
     0.05681818     0.82327706     0.42564718
     0.05681818     0.86327706     0.42564718
     0.05681818     0.90327706     0.42564718
     0.05681818     0.94327706     0.42564718
     0.05681818     0.98327706     0.42564718
     0.07954545     0.02327706     0.42564718
     0.07954545     0.06327706     0.42564718
     0.07954545     0.10327706     0.42564718
     0.07954545     0.14327706     0.42564718
     0.07954545     0.18327706     0.42564718
     0.07954545     0.22327706     0.42564718
     0.07954545     0.26327706     0.42564718
     0.07954545     0.30327706     0.42564718
     0.07954545     0.34327706     0.42564718
     0.07954545     0.38327706     0.42564718
     0.07954545     0.42327706     0.42564718
     0.07954545     0.46327706     0.42564718
     0.07954545     0.50327706     0.42564718
     0.07954545     0.54327706     0.42564718
     0.07954545     0.58327706     0.42564718
     0.07954545     0.62327706     0.42564718
     0.07954545     0.66327706     0.42564718
     0.07954545     0.70327706     0.42564718
     0.07954545     0.74327706     0.42564718
     0.07954545     0.78327706     0.42564718
     0.07954545     0.82327706     0.42564718
     0.07954545     0.86327706     0.42564718
     0.07954545     0.90327706     0.42564718
     0.07954545     0.94327706     0.42564718
     0.07954545     0.98327706     0.42564718
     0.10227273     0.02327706     0.42564718
     0.10227273     0.06327706     0.42564718
     0.10227273     0.10327706     0.42564718
     0.10227273     0.14327706     0.42564718
     0.10227273     0.18327706     0.42564718
     0.10227273     0.22327706     0.42564718
     0.10227273     0.26327706     0.42564718
     0.10227273     0.30327706     0.42564718
     0.10227273     0.34327706     0.42564718
     0.10227273     0.38327706     0.42564718
     0.10227273     0.42327706     0.42564718
     0.10227273     0.46327706     0.42564718
     0.10227273     0.50327706     0.42564718
     0.10227273     0.54327706     0.42564718
     0.10227273     0.58327706     0.42564718
     0.10227273     0.62327706     0.42564718
     0.10227273     0.66327706     0.42564718
     0.10227273     0.70327706     0.42564718
     0.10227273     0.74327706     0.42564718
     0.10227273     0.78327706     0.42564718
     0.10227273     0.82327706     0.42564718
     0.10227273     0.86327706     0.42564718
     0.10227273     0.90327706     0.42564718
     0.10227273     0.94327706     0.42564718
     0.10227273     0.98327706     0.42564718
     0.12500000     0.02327706     0.42564718
     0.12500000     0.06327706     0.42564718
     0.12500000     0.10327706     0.42564718
     0.12500000     0.14327706     0.42564718
     0.12500000     0.18327706     0.42564718
     0.12500000     0.22327706     0.42564718
     0.12500000     0.26327706     0.42564718
     0.12500000     0.30327706     0.42564718
     0.12500000     0.34327706     0.42564718
     0.12500000     0.38327706     0.42564718
     0.12500000     0.42327706     0.42564718
     0.12500000     0.46327706     0.42564718
     0.12500000     0.50327706     0.42564718
     0.12500000     0.54327706     0.42564718
     0.12500000     0.58327706     0.42564718
     0.12500000     0.62327706     0.42564718
     0.12500000     0.66327706     0.42564718
     0.12500000     0.70327706     0.42564718
     0.12500000     0.74327706     0.42564718
     0.12500000     0.78327706     0.42564718
     0.12500000     0.82327706     0.42564718
     0.12500000     0.86327706     0.42564718
     0.12500000     0.90327706     0.42564718
     0.12500000     0.94327706     0.42564718
     0.12500000     0.98327706     0.42564718
     0.14772727     0.02327706     0.42564718
     0.14772727     0.06327706     0.42564718
     0.14772727     0.10327706     0.42564718
     0.14772727     0.14327706     0.42564718
     0.14772727     0.18327706     0.42564718
     0.14772727     0.22327706     0.42564718
     0.14772727     0.26327706     0.42564718
     0.14772727     0.30327706     0.42564718
     0.14772727     0.34327706     0.42564718
     0.14772727     0.38327706     0.42564718
     0.14772727     0.42327706     0.42564718
     0.14772727     0.46327706     0.42564718
     0.14772727     0.50327706     0.42564718
     0.14772727     0.54327706     0.42564718
     0.14772727     0.58327706     0.42564718
     0.14772727     0.62327706     0.42564718
     0.14772727     0.66327706     0.42564718
     0.14772727     0.70327706     0.42564718
     0.14772727     0.74327706     0.42564718
     0.14772727     0.78327706     0.42564718
     0.14772727     0.82327706     0.42564718
     0.14772727     0.86327706     0.42564718
     0.14772727     0.90327706     0.42564718
     0.14772727     0.94327706     0.42564718
     0.14772727     0.98327706     0.42564718
     0.17045455     0.02327706     0.42564718
     0.17045455     0.06327706     0.42564718
     0.17045455     0.10327706     0.42564718
     0.17045455     0.14327706     0.42564718
     0.17045455     0.18327706     0.42564718
     0.17045455     0.22327706     0.42564718
     0.17045455     0.26327706     0.42564718
     0.17045455     0.30327706     0.42564718
     0.17045455     0.34327706     0.42564718
     0.17045455     0.38327706     0.42564718
     0.17045455     0.42327706     0.42564718
     0.17045455     0.46327706     0.42564718
     0.17045455     0.50327706     0.42564718
     0.17045455     0.54327706     0.42564718
     0.17045455     0.58327706     0.42564718
     0.17045455     0.62327706     0.42564718
     0.17045455     0.66327706     0.42564718
     0.17045455     0.70327706     0.42564718
     0.17045455     0.74327706     0.42564718
     0.17045455     0.78327706     0.42564718
     0.17045455     0.82327706     0.42564718
     0.17045455     0.86327706     0.42564718
     0.17045455     0.90327706     0.42564718
     0.17045455     0.94327706     0.42564718
     0.17045455     0.98327706     0.42564718
     0.19318182     0.02327706     0.42564718
     0.19318182     0.06327706     0.42564718
     0.19318182     0.10327706     0.42564718
     0.19318182     0.14327706     0.42564718
     0.19318182     0.18327706     0.42564718
     0.19318182     0.22327706     0.42564718
     0.19318182     0.26327706     0.42564718
     0.19318182     0.30327706     0.42564718
     0.19318182     0.34327706     0.42564718
     0.19318182     0.38327706     0.42564718
     0.19318182     0.42327706     0.42564718
     0.19318182     0.46327706     0.42564718
     0.19318182     0.50327706     0.42564718
     0.19318182     0.54327706     0.42564718
     0.19318182     0.58327706     0.42564718
     0.19318182     0.62327706     0.42564718
     0.19318182     0.66327706     0.42564718
     0.19318182     0.70327706     0.42564718
     0.19318182     0.74327706     0.42564718
     0.19318182     0.78327706     0.42564718
     0.19318182     0.82327706     0.42564718
     0.19318182     0.86327706     0.42564718
     0.19318182     0.90327706     0.42564718
     0.19318182     0.94327706     0.42564718
     0.19318182     0.98327706     0.42564718
     0.21590909     0.02327706     0.42564718
     0.21590909     0.06327706     0.42564718
     0.21590909     0.10327706     0.42564718
     0.21590909     0.14327706     0.42564718
     0.21590909     0.18327706     0.42564718
     0.21590909     0.22327706     0.42564718
     0.21590909     0.26327706     0.42564718
     0.21590909     0.30327706     0.42564718
     0.21590909     0.34327706     0.42564718
     0.21590909     0.38327706     0.42564718
     0.21590909     0.42327706     0.42564718
     0.21590909     0.46327706     0.42564718
     0.21590909     0.50327706     0.42564718
     0.21590909     0.54327706     0.42564718
     0.21590909     0.58327706     0.42564718
     0.21590909     0.62327706     0.42564718
     0.21590909     0.66327706     0.42564718
     0.21590909     0.70327706     0.42564718
     0.21590909     0.74327706     0.42564718
     0.21590909     0.78327706     0.42564718
     0.21590909     0.82327706     0.42564718
     0.21590909     0.86327706     0.42564718
     0.21590909     0.90327706     0.42564718
     0.21590909     0.94327706     0.42564718
     0.21590909     0.98327706     0.42564718
     0.23863636     0.02327706     0.42564718
     0.23863636     0.06327706     0.42564718
     0.23863636     0.10327706     0.42564718
     0.23863636     0.14327706     0.42564718
     0.23863636     0.18327706     0.42564718
     0.23863636     0.22327706     0.42564718
     0.23863636     0.26327706     0.42564718
     0.23863636     0.30327706     0.42564718
     0.23863636     0.34327706     0.42564718
     0.23863636     0.38327706     0.42564718
     0.23863636     0.42327706     0.42564718
     0.23863636     0.46327706     0.42564718
     0.23863636     0.50327706     0.42564718
     0.23863636     0.54327706     0.42564718
     0.23863636     0.58327706     0.42564718
     0.23863636     0.62327706     0.42564718
     0.23863636     0.66327706     0.42564718
     0.23863636     0.70327706     0.42564718
     0.23863636     0.74327706     0.42564718
     0.23863636     0.78327706     0.42564718
     0.23863636     0.82327706     0.42564718
     0.23863636     0.86327706     0.42564718
     0.23863636     0.90327706     0.42564718
     0.23863636     0.94327706     0.42564718
     0.23863636     0.98327706     0.42564718
     0.26136364     0.02327706     0.42564718
     0.26136364     0.06327706     0.42564718
     0.26136364     0.10327706     0.42564718
     0.26136364     0.14327706     0.42564718
     0.26136364     0.18327706     0.42564718
     0.26136364     0.22327706     0.42564718
     0.26136364     0.26327706     0.42564718
     0.26136364     0.30327706     0.42564718
     0.26136364     0.34327706     0.42564718
     0.26136364     0.38327706     0.42564718
     0.26136364     0.42327706     0.42564718
     0.26136364     0.46327706     0.42564718
     0.26136364     0.50327706     0.42564718
     0.26136364     0.54327706     0.42564718
     0.26136364     0.58327706     0.42564718
     0.26136364     0.62327706     0.42564718
     0.26136364     0.66327706     0.42564718
     0.26136364     0.70327706     0.42564718
     0.26136364     0.74327706     0.42564718
     0.26136364     0.78327706     0.42564718
     0.26136364     0.82327706     0.42564718
     0.26136364     0.86327706     0.42564718
     0.26136364     0.90327706     0.42564718
     0.26136364     0.94327706     0.42564718
     0.26136364     0.98327706     0.42564718
     0.28409091     0.02327706     0.42564718
     0.28409091     0.06327706     0.42564718
     0.28409091     0.10327706     0.42564718
     0.28409091     0.14327706     0.42564718
     0.28409091     0.18327706     0.42564718
     0.28409091     0.22327706     0.42564718
     0.28409091     0.26327706     0.42564718
     0.28409091     0.30327706     0.42564718
     0.28409091     0.34327706     0.42564718
     0.28409091     0.38327706     0.42564718
     0.28409091     0.42327706     0.42564718
     0.28409091     0.46327706     0.42564718
     0.28409091     0.50327706     0.42564718
     0.28409091     0.54327706     0.42564718
     0.28409091     0.58327706     0.42564718
     0.28409091     0.62327706     0.42564718
     0.28409091     0.66327706     0.42564718
     0.28409091     0.70327706     0.42564718
     0.28409091     0.74327706     0.42564718
     0.28409091     0.78327706     0.42564718
     0.28409091     0.82327706     0.42564718
     0.28409091     0.86327706     0.42564718
     0.28409091     0.90327706     0.42564718
     0.28409091     0.94327706     0.42564718
     0.28409091     0.98327706     0.42564718
     0.30681818     0.02327706     0.42564718
     0.30681818     0.06327706     0.42564718
     0.30681818     0.10327706     0.42564718
     0.30681818     0.14327706     0.42564718
     0.30681818     0.18327706     0.42564718
     0.30681818     0.22327706     0.42564718
     0.30681818     0.26327706     0.42564718
     0.30681818     0.30327706     0.42564718
     0.30681818     0.34327706     0.42564718
     0.30681818     0.38327706     0.42564718
     0.30681818     0.42327706     0.42564718
     0.30681818     0.46327706     0.42564718
     0.30681818     0.50327706     0.42564718
     0.30681818     0.54327706     0.42564718
     0.30681818     0.58327706     0.42564718
     0.30681818     0.62327706     0.42564718
     0.30681818     0.66327706     0.42564718
     0.30681818     0.70327706     0.42564718
     0.30681818     0.74327706     0.42564718
     0.30681818     0.78327706     0.42564718
     0.30681818     0.82327706     0.42564718
     0.30681818     0.86327706     0.42564718
     0.30681818     0.90327706     0.42564718
     0.30681818     0.94327706     0.42564718
     0.30681818     0.98327706     0.42564718
     0.32954545     0.02327706     0.42564718
     0.32954545     0.06327706     0.42564718
     0.32954545     0.10327706     0.42564718
     0.32954545     0.14327706     0.42564718
     0.32954545     0.18327706     0.42564718
     0.32954545     0.22327706     0.42564718
     0.32954545     0.26327706     0.42564718
     0.32954545     0.30327706     0.42564718
     0.32954545     0.34327706     0.42564718
     0.32954545     0.38327706     0.42564718
     0.32954545     0.42327706     0.42564718
     0.32954545     0.46327706     0.42564718
     0.32954545     0.50327706     0.42564718
     0.32954545     0.54327706     0.42564718
     0.32954545     0.58327706     0.42564718
     0.32954545     0.62327706     0.42564718
     0.32954545     0.66327706     0.42564718
     0.32954545     0.70327706     0.42564718
     0.32954545     0.74327706     0.42564718
     0.32954545     0.78327706     0.42564718
     0.32954545     0.82327706     0.42564718
     0.32954545     0.86327706     0.42564718
     0.32954545     0.90327706     0.42564718
     0.32954545     0.94327706     0.42564718
     0.32954545     0.98327706     0.42564718
     0.35227273     0.02327706     0.42564718
     0.35227273     0.06327706     0.42564718
     0.35227273     0.10327706     0.42564718
     0.35227273     0.14327706     0.42564718
     0.35227273     0.18327706     0.42564718
     0.35227273     0.22327706     0.42564718
     0.35227273     0.26327706     0.42564718
     0.35227273     0.30327706     0.42564718
     0.35227273     0.34327706     0.42564718
     0.35227273     0.38327706     0.42564718
     0.35227273     0.42327706     0.42564718
     0.35227273     0.46327706     0.42564718
     0.35227273     0.50327706     0.42564718
     0.35227273     0.54327706     0.42564718
     0.35227273     0.58327706     0.42564718
     0.35227273     0.62327706     0.42564718
     0.35227273     0.66327706     0.42564718
     0.35227273     0.70327706     0.42564718
     0.35227273     0.74327706     0.42564718
     0.35227273     0.78327706     0.42564718
     0.35227273     0.82327706     0.42564718
     0.35227273     0.86327706     0.42564718
     0.35227273     0.90327706     0.42564718
     0.35227273     0.94327706     0.42564718
     0.35227273     0.98327706     0.42564718
     0.37500000     0.02327706     0.42564718
     0.37500000     0.06327706     0.42564718
     0.37500000     0.10327706     0.42564718
     0.37500000     0.14327706     0.42564718
     0.37500000     0.18327706     0.42564718
     0.37500000     0.22327706     0.42564718
     0.37500000     0.26327706     0.42564718
     0.37500000     0.30327706     0.42564718
     0.37500000     0.34327706     0.42564718
     0.37500000     0.38327706     0.42564718
     0.37500000     0.42327706     0.42564718
     0.37500000     0.46327706     0.42564718
     0.37500000     0.50327706     0.42564718
     0.37500000     0.54327706     0.42564718
     0.37500000     0.58327706     0.42564718
     0.37500000     0.62327706     0.42564718
     0.37500000     0.66327706     0.42564718
     0.37500000     0.70327706     0.42564718
     0.37500000     0.74327706     0.42564718
     0.37500000     0.78327706     0.42564718
     0.37500000     0.82327706     0.42564718
     0.37500000     0.86327706     0.42564718
     0.37500000     0.90327706     0.42564718
     0.37500000     0.94327706     0.42564718
     0.37500000     0.98327706     0.42564718
     0.39772727     0.02327706     0.42564718
     0.39772727     0.06327706     0.42564718
     0.39772727     0.10327706     0.42564718
     0.39772727     0.14327706     0.42564718
     0.39772727     0.18327706     0.42564718
     0.39772727     0.22327706     0.42564718
     0.39772727     0.26327706     0.42564718
     0.39772727     0.30327706     0.42564718
     0.39772727     0.34327706     0.42564718
     0.39772727     0.38327706     0.42564718
     0.39772727     0.42327706     0.42564718
     0.39772727     0.46327706     0.42564718
     0.39772727     0.50327706     0.42564718
     0.39772727     0.54327706     0.42564718
     0.39772727     0.58327706     0.42564718
     0.39772727     0.62327706     0.42564718
     0.39772727     0.66327706     0.42564718
     0.39772727     0.70327706     0.42564718
     0.39772727     0.74327706     0.42564718
     0.39772727     0.78327706     0.42564718
     0.39772727     0.82327706     0.42564718
     0.39772727     0.86327706     0.42564718
     0.39772727     0.90327706     0.42564718
     0.39772727     0.94327706     0.42564718
     0.39772727     0.98327706     0.42564718
     0.42045455     0.02327706     0.42564718
     0.42045455     0.06327706     0.42564718
     0.42045455     0.10327706     0.42564718
     0.42045455     0.14327706     0.42564718
     0.42045455     0.18327706     0.42564718
     0.42045455     0.22327706     0.42564718
     0.42045455     0.26327706     0.42564718
     0.42045455     0.30327706     0.42564718
     0.42045455     0.34327706     0.42564718
     0.42045455     0.38327706     0.42564718
     0.42045455     0.42327706     0.42564718
     0.42045455     0.46327706     0.42564718
     0.42045455     0.50327706     0.42564718
     0.42045455     0.54327706     0.42564718
     0.42045455     0.58327706     0.42564718
     0.42045455     0.62327706     0.42564718
     0.42045455     0.66327706     0.42564718
     0.42045455     0.70327706     0.42564718
     0.42045455     0.74327706     0.42564718
     0.42045455     0.78327706     0.42564718
     0.42045455     0.82327706     0.42564718
     0.42045455     0.86327706     0.42564718
     0.42045455     0.90327706     0.42564718
     0.42045455     0.94327706     0.42564718
     0.42045455     0.98327706     0.42564718
     0.44318182     0.02327706     0.42564718
     0.44318182     0.06327706     0.42564718
     0.44318182     0.10327706     0.42564718
     0.44318182     0.14327706     0.42564718
     0.44318182     0.18327706     0.42564718
     0.44318182     0.22327706     0.42564718
     0.44318182     0.26327706     0.42564718
     0.44318182     0.30327706     0.42564718
     0.44318182     0.34327706     0.42564718
     0.44318182     0.38327706     0.42564718
     0.44318182     0.42327706     0.42564718
     0.44318182     0.46327706     0.42564718
     0.44318182     0.50327706     0.42564718
     0.44318182     0.54327706     0.42564718
     0.44318182     0.58327706     0.42564718
     0.44318182     0.62327706     0.42564718
     0.44318182     0.66327706     0.42564718
     0.44318182     0.70327706     0.42564718
     0.44318182     0.74327706     0.42564718
     0.44318182     0.78327706     0.42564718
     0.44318182     0.82327706     0.42564718
     0.44318182     0.86327706     0.42564718
     0.44318182     0.90327706     0.42564718
     0.44318182     0.94327706     0.42564718
     0.44318182     0.98327706     0.42564718
     0.46590909     0.02327706     0.42564718
     0.46590909     0.06327706     0.42564718
     0.46590909     0.10327706     0.42564718
     0.46590909     0.14327706     0.42564718
     0.46590909     0.18327706     0.42564718
     0.46590909     0.22327706     0.42564718
     0.46590909     0.26327706     0.42564718
     0.46590909     0.30327706     0.42564718
     0.46590909     0.34327706     0.42564718
     0.46590909     0.38327706     0.42564718
     0.46590909     0.42327706     0.42564718
     0.46590909     0.46327706     0.42564718
     0.46590909     0.50327706     0.42564718
     0.46590909     0.54327706     0.42564718
     0.46590909     0.58327706     0.42564718
     0.46590909     0.62327706     0.42564718
     0.46590909     0.66327706     0.42564718
     0.46590909     0.70327706     0.42564718
     0.46590909     0.74327706     0.42564718
     0.46590909     0.78327706     0.42564718
     0.46590909     0.82327706     0.42564718
     0.46590909     0.86327706     0.42564718
     0.46590909     0.90327706     0.42564718
     0.46590909     0.94327706     0.42564718
     0.46590909     0.98327706     0.42564718
     0.48863636     0.02327706     0.42564718
     0.48863636     0.06327706     0.42564718
     0.48863636     0.10327706     0.42564718
     0.48863636     0.14327706     0.42564718
     0.48863636     0.18327706     0.42564718
     0.48863636     0.22327706     0.42564718
     0.48863636     0.26327706     0.42564718
     0.48863636     0.30327706     0.42564718
     0.48863636     0.34327706     0.42564718
     0.48863636     0.38327706     0.42564718
     0.48863636     0.42327706     0.42564718
     0.48863636     0.46327706     0.42564718
     0.48863636     0.50327706     0.42564718
     0.48863636     0.54327706     0.42564718
     0.48863636     0.58327706     0.42564718
     0.48863636     0.62327706     0.42564718
     0.48863636     0.66327706     0.42564718
     0.48863636     0.70327706     0.42564718
     0.48863636     0.74327706     0.42564718
     0.48863636     0.78327706     0.42564718
     0.48863636     0.82327706     0.42564718
     0.48863636     0.86327706     0.42564718
     0.48863636     0.90327706     0.42564718
     0.48863636     0.94327706     0.42564718
     0.48863636     0.98327706     0.42564718
     0.51136364     0.02327706     0.42564718
     0.51136364     0.06327706     0.42564718
     0.51136364     0.10327706     0.42564718
     0.51136364     0.14327706     0.42564718
     0.51136364     0.18327706     0.42564718
     0.51136364     0.22327706     0.42564718
     0.51136364     0.26327706     0.42564718
     0.51136364     0.30327706     0.42564718
     0.51136364     0.34327706     0.42564718
     0.51136364     0.38327706     0.42564718
     0.51136364     0.42327706     0.42564718
     0.51136364     0.46327706     0.42564718
     0.51136364     0.50327706     0.42564718
     0.51136364     0.54327706     0.42564718
     0.51136364     0.58327706     0.42564718
     0.51136364     0.62327706     0.42564718
     0.51136364     0.66327706     0.42564718
     0.51136364     0.70327706     0.42564718
     0.51136364     0.74327706     0.42564718
     0.51136364     0.78327706     0.42564718
     0.51136364     0.82327706     0.42564718
     0.51136364     0.86327706     0.42564718
     0.51136364     0.90327706     0.42564718
     0.51136364     0.94327706     0.42564718
     0.51136364     0.98327706     0.42564718
     0.53409091     0.02327706     0.42564718
     0.53409091     0.06327706     0.42564718
     0.53409091     0.10327706     0.42564718
     0.53409091     0.14327706     0.42564718
     0.53409091     0.18327706     0.42564718
     0.53409091     0.22327706     0.42564718
     0.53409091     0.26327706     0.42564718
     0.53409091     0.30327706     0.42564718
     0.53409091     0.34327706     0.42564718
     0.53409091     0.38327706     0.42564718
     0.53409091     0.42327706     0.42564718
     0.53409091     0.46327706     0.42564718
     0.53409091     0.50327706     0.42564718
     0.53409091     0.54327706     0.42564718
     0.53409091     0.58327706     0.42564718
     0.53409091     0.62327706     0.42564718
     0.53409091     0.66327706     0.42564718
     0.53409091     0.70327706     0.42564718
     0.53409091     0.74327706     0.42564718
     0.53409091     0.78327706     0.42564718
     0.53409091     0.82327706     0.42564718
     0.53409091     0.86327706     0.42564718
     0.53409091     0.90327706     0.42564718
     0.53409091     0.94327706     0.42564718
     0.53409091     0.98327706     0.42564718
     0.55681818     0.02327706     0.42564718
     0.55681818     0.06327706     0.42564718
     0.55681818     0.10327706     0.42564718
     0.55681818     0.14327706     0.42564718
     0.55681818     0.18327706     0.42564718
     0.55681818     0.22327706     0.42564718
     0.55681818     0.26327706     0.42564718
     0.55681818     0.30327706     0.42564718
     0.55681818     0.34327706     0.42564718
     0.55681818     0.38327706     0.42564718
     0.55681818     0.42327706     0.42564718
     0.55681818     0.46327706     0.42564718
     0.55681818     0.50327706     0.42564718
     0.55681818     0.54327706     0.42564718
     0.55681818     0.58327706     0.42564718
     0.55681818     0.62327706     0.42564718
     0.55681818     0.66327706     0.42564718
     0.55681818     0.70327706     0.42564718
     0.55681818     0.74327706     0.42564718
     0.55681818     0.78327706     0.42564718
     0.55681818     0.82327706     0.42564718
     0.55681818     0.86327706     0.42564718
     0.55681818     0.90327706     0.42564718
     0.55681818     0.94327706     0.42564718
     0.55681818     0.98327706     0.42564718
     0.57954545     0.02327706     0.42564718
     0.57954545     0.06327706     0.42564718
     0.57954545     0.10327706     0.42564718
     0.57954545     0.14327706     0.42564718
     0.57954545     0.18327706     0.42564718
     0.57954545     0.22327706     0.42564718
     0.57954545     0.26327706     0.42564718
     0.57954545     0.30327706     0.42564718
     0.57954545     0.34327706     0.42564718
     0.57954545     0.38327706     0.42564718
     0.57954545     0.42327706     0.42564718
     0.57954545     0.46327706     0.42564718
     0.57954545     0.50327706     0.42564718
     0.57954545     0.54327706     0.42564718
     0.57954545     0.58327706     0.42564718
     0.57954545     0.62327706     0.42564718
     0.57954545     0.66327706     0.42564718
     0.57954545     0.70327706     0.42564718
     0.57954545     0.74327706     0.42564718
     0.57954545     0.78327706     0.42564718
     0.57954545     0.82327706     0.42564718
     0.57954545     0.86327706     0.42564718