Generated by Twist2D
    1.0
     131.87998540       0.00000000       0.00000000
       0.00000000      93.04021291       0.00000000
       0.00000000       0.00000000      20.00000000
    P
    6724
Direct
     0.01250000     0.02771079     0.42564718
     0.01250000     0.07532983     0.42564718
     0.01250000     0.12294888     0.42564718
     0.01250000     0.17056793     0.42564718
     0.01250000     0.21818698     0.42564718
     0.01250000     0.26580602     0.42564718
     0.01250000     0.31342507     0.42564718
     0.01250000     0.36104412     0.42564718
     0.01250000     0.40866317     0.42564718
     0.01250000     0.45628222     0.42564718
     0.01250000     0.50390126     0.42564718
     0.01250000     0.55152031     0.42564718
     0.01250000     0.59913936     0.42564718
     0.01250000     0.64675841     0.42564718
     0.01250000     0.69437745     0.42564718
     0.01250000     0.74199650     0.42564718
     0.01250000     0.78961555     0.42564718
     0.01250000     0.83723460     0.42564718
     0.01250000     0.88485364     0.42564718
     0.01250000     0.93247269     0.42564718
     0.01250000     0.98009174     0.42564718
     0.03750000     0.02771079     0.42564718
     0.03750000     0.07532983     0.42564718
     0.03750000     0.12294888     0.42564718
     0.03750000     0.17056793     0.42564718
     0.03750000     0.21818698     0.42564718
     0.03750000     0.26580602     0.42564718
     0.03750000     0.31342507     0.42564718
     0.03750000     0.36104412     0.42564718
     0.03750000     0.40866317     0.42564718
     0.03750000     0.45628222     0.42564718
     0.03750000     0.50390126     0.42564718
     0.03750000     0.55152031     0.42564718
     0.03750000     0.59913936     0.42564718
     0.03750000     0.64675841     0.42564718
     0.03750000     0.69437745     0.42564718
     0.03750000     0.74199650     0.42564718
     0.03750000     0.78961555     0.42564718
     0.03750000     0.83723460     0.42564718
     0.03750000     0.88485364     0.42564718
     0.03750000     0.93247269     0.42564718
     0.03750000     0.98009174     0.42564718
     0.06250000     0.02771079     0.42564718
     0.06250000     0.07532983     0.42564718
     0.06250000     0.12294888     0.42564718
     0.06250000     0.17056793     0.42564718
     0.06250000     0.21818698     0.42564718
     0.06250000     0.26580602     0.42564718
     0.06250000     0.31342507     0.42564718
     0.06250000     0.36104412     0.42564718
     0.06250000     0.40866317     0.42564718
     0.06250000     0.45628222     0.42564718
     0.06250000     0.50390126     0.42564718
     0.06250000     0.55152031     0.42564718
     0.06250000     0.59913936     0.42564718
     0.06250000     0.64675841     0.42564718
     0.06250000     0.69437745     0.42564718
     0.06250000     0.74199650     0.42564718
     0.06250000     0.78961555     0.42564718
     0.06250000     0.83723460     0.42564718
     0.06250000     0.88485364     0.42564718
     0.06250000     0.93247269     0.42564718
     0.06250000     0.98009174     0.42564718
     0.08750000     0.02771079     0.42564718
     0.08750000     0.07532983     0.42564718
     0.08750000     0.12294888     0.42564718
     0.08750000     0.17056793     0.42564718
     0.08750000     0.21818698     0.42564718
     0.08750000     0.26580602     0.42564718
     0.08750000     0.31342507     0.42564718
     0.08750000     0.36104412     0.42564718
     0.08750000     0.40866317     0.42564718
     0.08750000     0.45628222     0.42564718
     0.08750000     0.50390126     0.42564718
     0.08750000     0.55152031     0.42564718
     0.08750000     0.59913936     0.42564718
     0.08750000     0.64675841     0.42564718
     0.08750000     0.69437745     0.42564718
     0.08750000     0.74199650     0.42564718
     0.08750000     0.78961555     0.42564718
     0.08750000     0.83723460     0.42564718
     0.08750000     0.88485364     0.42564718
     0.08750000     0.93247269     0.42564718
     0.08750000     0.98009174     0.42564718
     0.11250000     0.02771079     0.42564718
     0.11250000     0.07532983     0.42564718
     0.11250000     0.12294888     0.42564718
     0.11250000     0.17056793     0.42564718
     0.11250000     0.21818698     0.42564718
     0.11250000     0.26580602     0.42564718
     0.11250000     0.31342507     0.42564718
     0.11250000     0.36104412     0.42564718
     0.11250000     0.40866317     0.42564718
     0.11250000     0.45628222     0.42564718
     0.11250000     0.50390126     0.42564718
     0.11250000     0.55152031     0.42564718
     0.11250000     0.59913936     0.42564718
     0.11250000     0.64675841     0.42564718
     0.11250000     0.69437745     0.42564718
     0.11250000     0.74199650     0.42564718
     0.11250000     0.78961555     0.42564718
     0.11250000     0.83723460     0.42564718
     0.11250000     0.88485364     0.42564718
     0.11250000     0.93247269     0.42564718
     0.11250000     0.98009174     0.42564718
     0.13750000     0.02771079     0.42564718
     0.13750000     0.07532983     0.42564718
     0.13750000     0.12294888     0.42564718
     0.13750000     0.17056793     0.42564718
     0.13750000     0.21818698     0.42564718
     0.13750000     0.26580602     0.42564718
     0.13750000     0.31342507     0.42564718
     0.13750000     0.36104412     0.42564718
     0.13750000     0.40866317     0.42564718
     0.13750000     0.45628222     0.42564718
     0.13750000     0.50390126     0.42564718
     0.13750000     0.55152031     0.42564718
     0.13750000     0.59913936     0.42564718
     0.13750000     0.64675841     0.42564718
     0.13750000     0.69437745     0.42564718
     0.13750000     0.74199650     0.42564718
     0.13750000     0.78961555     0.42564718
     0.13750000     0.83723460     0.42564718
     0.13750000     0.88485364     0.42564718
     0.13750000     0.93247269     0.42564718
     0.13750000     0.98009174     0.42564718
     0.16250000     0.02771079     0.42564718
     0.16250000     0.07532983     0.42564718
     0.16250000     0.12294888     0.42564718
     0.16250000     0.17056793     0.42564718
     0.16250000     0.21818698     0.42564718
     0.16250000     0.26580602     0.42564718
     0.16250000     0.31342507     0.42564718
     0.16250000     0.36104412     0.42564718
     0.16250000     0.40866317     0.42564718
     0.16250000     0.45628222     0.42564718
     0.16250000     0.50390126     0.42564718
     0.16250000     0.55152031     0.42564718
     0.16250000     0.59913936     0.42564718
     0.16250000     0.64675841     0.42564718
     0.16250000     0.69437745     0.42564718
     0.16250000     0.74199650     0.42564718
     0.16250000     0.78961555     0.42564718
     0.16250000     0.83723460     0.42564718
     0.16250000     0.88485364     0.42564718
     0.16250000     0.93247269     0.42564718
     0.16250000     0.98009174     0.42564718
     0.18750000     0.02771079     0.42564718
     0.18750000     0.07532983     0.42564718
     0.18750000     0.12294888     0.42564718
     0.18750000     0.17056793     0.42564718
     0.18750000     0.21818698     0.42564718
     0.18750000     0.26580602     0.42564718
     0.18750000     0.31342507     0.42564718
     0.18750000     0.36104412     0.42564718
     0.18750000     0.40866317     0.42564718
     0.18750000     0.45628222     0.42564718
     0.18750000     0.50390126     0.42564718
     0.18750000     0.55152031     0.42564718
     0.18750000     0.59913936     0.42564718
     0.18750000     0.64675841     0.42564718
     0.18750000     0.69437745     0.42564718
     0.18750000     0.74199650     0.42564718
     0.18750000     0.78961555     0.42564718
     0.18750000     0.83723460     0.42564718
     0.18750000     0.88485364     0.42564718
     0.18750000     0.93247269     0.42564718
     0.18750000     0.98009174     0.42564718
     0.21250000     0.02771079     0.42564718
     0.21250000     0.07532983     0.42564718
     0.21250000     0.12294888     0.42564718
     0.21250000     0.17056793     0.42564718
     0.21250000     0.21818698     0.42564718
     0.21250000     0.26580602     0.42564718
     0.21250000     0.31342507     0.42564718
     0.21250000     0.36104412     0.42564718
     0.21250000     0.40866317     0.42564718
     0.21250000     0.45628222     0.42564718
     0.21250000     0.50390126     0.42564718
     0.21250000     0.55152031     0.42564718
     0.21250000     0.59913936     0.42564718
     0.21250000     0.64675841     0.42564718
     0.21250000     0.69437745     0.42564718
     0.21250000     0.74199650     0.42564718
     0.21250000     0.78961555     0.42564718
     0.21250000     0.83723460     0.42564718
     0.21250000     0.88485364     0.42564718
     0.21250000     0.93247269     0.42564718
     0.21250000     0.98009174     0.42564718
     0.23750000     0.02771079     0.42564718
     0.23750000     0.07532983     0.42564718
     0.23750000     0.12294888     0.42564718
     0.23750000     0.17056793     0.42564718
     0.23750000     0.21818698     0.42564718
     0.23750000     0.26580602     0.42564718
     0.23750000     0.31342507     0.42564718
     0.23750000     0.36104412     0.42564718
     0.23750000     0.40866317     0.42564718
     0.23750000     0.45628222     0.42564718
     0.23750000     0.50390126     0.42564718
     0.23750000     0.55152031     0.42564718
     0.23750000     0.59913936     0.42564718
     0.23750000     0.64675841     0.42564718
     0.23750000     0.69437745     0.42564718
     0.23750000     0.74199650     0.42564718
     0.23750000     0.78961555     0.42564718
     0.23750000     0.83723460     0.42564718
     0.23750000     0.88485364     0.42564718
     0.23750000     0.93247269     0.42564718
     0.23750000     0.98009174     0.42564718
     0.26250000     0.02771079     0.42564718
     0.26250000     0.07532983     0.42564718
     0.26250000     0.12294888     0.42564718
     0.26250000     0.17056793     0.42564718
     0.26250000     0.21818698     0.42564718
     0.26250000     0.26580602     0.42564718
     0.26250000     0.31342507     0.42564718
     0.26250000     0.36104412     0.42564718
     0.26250000     0.40866317     0.42564718
     0.26250000     0.45628222     0.42564718
     0.26250000     0.50390126     0.42564718
     0.26250000     0.55152031     0.42564718
     0.26250000     0.59913936     0.42564718
     0.26250000     0.64675841     0.42564718
     0.26250000     0.69437745     0.42564718
     0.26250000     0.74199650     0.42564718
     0.26250000     0.78961555     0.42564718
     0.26250000     0.83723460     0.42564718
     0.26250000     0.88485364     0.42564718
     0.26250000     0.93247269     0.42564718
     0.26250000     0.98009174     0.42564718
     0.28750000     0.02771079     0.42564718
     0.28750000     0.07532983     0.42564718
     0.28750000     0.12294888     0.42564718
     0.28750000     0.17056793     0.42564718
     0.28750000     0.21818698     0.42564718
     0.28750000     0.26580602     0.42564718
     0.28750000     0.31342507     0.42564718
     0.28750000     0.36104412     0.42564718
     0.28750000     0.40866317     0.42564718
     0.28750000     0.45628222     0.42564718
     0.28750000     0.50390126     0.42564718
     0.28750000     0.55152031     0.42564718
     0.28750000     0.59913936     0.42564718
     0.28750000     0.64675841     0.42564718
     0.28750000     0.69437745     0.42564718
     0.28750000     0.74199650     0.42564718
     0.28750000     0.78961555     0.42564718
     0.28750000     0.83723460     0.42564718
     0.28750000     0.88485364     0.42564718
     0.28750000     0.93247269     0.42564718
     0.28750000     0.98009174     0.42564718
     0.31250000     0.02771079     0.42564718
     0.31250000     0.07532983     0.42564718
     0.31250000     0.12294888     0.42564718
     0.31250000     0.17056793     0.42564718
     0.31250000     0.21818698     0.42564718
     0.31250000     0.26580602     0.42564718
     0.31250000     0.31342507     0.42564718
     0.31250000     0.36104412     0.42564718
     0.31250000     0.40866317     0.42564718
     0.31250000     0.45628222     0.42564718
     0.31250000     0.50390126     0.42564718
     0.31250000     0.55152031     0.42564718
     0.31250000     0.59913936     0.42564718
     0.31250000     0.64675841     0.42564718
     0.31250000     0.69437745     0.42564718
     0.31250000     0.74199650     0.42564718
     0.31250000     0.78961555     0.42564718
     0.31250000     0.83723460     0.42564718
     0.31250000     0.88485364     0.42564718
     0.31250000     0.93247269     0.42564718
     0.31250000     0.98009174     0.42564718
     0.33750000     0.02771079     0.42564718
     0.33750000     0.07532983     0.42564718
     0.33750000     0.12294888     0.42564718
     0.33750000     0.17056793     0.42564718
     0.33750000     0.21818698     0.42564718
     0.33750000     0.26580602     0.42564718
     0.33750000     0.31342507     0.42564718
     0.33750000     0.36104412     0.42564718
     0.33750000     0.40866317     0.42564718
     0.33750000     0.45628222     0.42564718
     0.33750000     0.50390126     0.42564718
     0.33750000     0.55152031     0.42564718
     0.33750000     0.59913936     0.42564718
     0.33750000     0.64675841     0.42564718
     0.33750000     0.69437745     0.42564718
     0.33750000     0.74199650     0.42564718
     0.33750000     0.78961555     0.42564718
     0.33750000     0.83723460     0.42564718
     0.33750000     0.88485364     0.42564718
     0.33750000     0.93247269     0.42564718
     0.33750000     0.98009174     0.42564718
     0.36250000     0.02771079     0.42564718
     0.36250000     0.07532983     0.42564718
     0.36250000     0.12294888     0.42564718
     0.36250000     0.17056793     0.42564718
     0.36250000     0.21818698     0.42564718
     0.36250000     0.26580602     0.42564718
     0.36250000     0.31342507     0.42564718
     0.36250000     0.36104412     0.42564718
     0.36250000     0.40866317     0.42564718
     0.36250000     0.45628222     0.42564718
     0.36250000     0.50390126     0.42564718
     0.36250000     0.55152031     0.42564718
     0.36250000     0.59913936     0.42564718
     0.36250000     0.64675841     0.42564718
     0.36250000     0.69437745     0.42564718
     0.36250000     0.74199650     0.42564718
     0.36250000     0.78961555     0.42564718
     0.36250000     0.83723460     0.42564718
     0.36250000     0.88485364     0.42564718
     0.36250000     0.93247269     0.42564718
     0.36250000     0.98009174     0.42564718
     0.38750000     0.02771079     0.42564718
     0.38750000     0.07532983     0.42564718
     0.38750000     0.12294888     0.42564718
     0.38750000     0.17056793     0.42564718
     0.38750000     0.21818698     0.42564718
     0.38750000     0.26580602     0.42564718
     0.38750000     0.31342507     0.42564718
     0.38750000     0.36104412     0.42564718
     0.38750000     0.40866317     0.42564718
     0.38750000     0.45628222     0.42564718
     0.38750000     0.50390126     0.42564718
     0.38750000     0.55152031     0.42564718
     0.38750000     0.59913936     0.42564718
     0.38750000     0.64675841     0.42564718
     0.38750000     0.69437745     0.42564718
     0.38750000     0.74199650     0.42564718
     0.38750000     0.78961555     0.42564718
     0.38750000     0.83723460     0.42564718
     0.38750000     0.88485364     0.42564718
     0.38750000     0.93247269     0.42564718
     0.38750000     0.98009174     0.42564718
     0.41250000     0.02771079     0.42564718
     0.41250000     0.07532983     0.42564718
     0.41250000     0.12294888     0.42564718
     0.41250000     0.17056793     0.42564718
     0.41250000     0.21818698     0.42564718
     0.41250000     0.26580602     0.42564718
     0.41250000     0.31342507     0.42564718
     0.41250000     0.36104412     0.42564718
     0.41250000     0.40866317     0.42564718
     0.41250000     0.45628222     0.42564718
     0.41250000     0.50390126     0.42564718
     0.41250000     0.55152031     0.42564718
     0.41250000     0.59913936     0.42564718
     0.41250000     0.64675841     0.42564718
     0.41250000     0.69437745     0.42564718
     0.41250000     0.74199650     0.42564718
     0.41250000     0.78961555     0.42564718
     0.41250000     0.83723460     0.42564718
     0.41250000     0.88485364     0.42564718
     0.41250000     0.93247269     0.42564718
     0.41250000     0.98009174     0.42564718
     0.43750000     0.02771079     0.42564718
     0.43750000     0.07532983     0.42564718
     0.43750000     0.12294888     0.42564718
     0.43750000     0.17056793     0.42564718
     0.43750000     0.21818698     0.42564718
     0.43750000     0.26580602     0.42564718
     0.43750000     0.31342507     0.42564718
     0.43750000     0.36104412     0.42564718
     0.43750000     0.40866317     0.42564718
     0.43750000     0.45628222     0.42564718
     0.43750000     0.50390126     0.42564718
     0.43750000     0.55152031     0.42564718
     0.43750000     0.59913936     0.42564718
     0.43750000     0.64675841     0.42564718
     0.43750000     0.69437745     0.42564718
     0.43750000     0.74199650     0.42564718
     0.43750000     0.78961555     0.42564718
     0.43750000     0.83723460     0.42564718
     0.43750000     0.88485364     0.42564718
     0.43750000     0.93247269     0.42564718
     0.43750000     0.98009174     0.42564718
     0.46250000     0.02771079     0.42564718
     0.46250000     0.07532983     0.42564718
     0.46250000     0.12294888     0.42564718
     0.46250000     0.17056793     0.42564718
     0.46250000     0.21818698     0.42564718
     0.46250000     0.26580602     0.42564718
     0.46250000     0.31342507     0.42564718
     0.46250000     0.36104412     0.42564718
     0.46250000     0.40866317     0.42564718
     0.46250000     0.45628222     0.42564718
     0.46250000     0.50390126     0.42564718
     0.46250000     0.55152031     0.42564718
     0.46250000     0.59913936     0.42564718
     0.46250000     0.64675841     0.42564718
     0.46250000     0.69437745     0.42564718
     0.46250000     0.74199650     0.42564718
     0.46250000     0.78961555     0.42564718
     0.46250000     0.83723460     0.42564718
     0.46250000     0.88485364     0.42564718
     0.46250000     0.93247269     0.42564718
     0.46250000     0.98009174     0.42564718
     0.48750000     0.02771079     0.42564718
     0.48750000     0.07532983     0.42564718
     0.48750000     0.12294888     0.42564718
     0.48750000     0.17056793     0.42564718
     0.48750000     0.21818698     0.42564718
     0.48750000     0.26580602     0.42564718
     0.48750000     0.31342507     0.42564718
     0.48750000     0.36104412     0.42564718
     0.48750000     0.40866317     0.42564718
     0.48750000     0.45628222     0.42564718
     0.48750000     0.50390126     0.42564718
     0.48750000     0.55152031     0.42564718
     0.48750000     0.59913936     0.42564718
     0.48750000     0.64675841     0.42564718
     0.48750000     0.69437745     0.42564718
     0.48750000     0.74199650     0.42564718
     0.48750000     0.78961555     0.42564718
     0.48750000     0.83723460     0.42564718
     0.48750000     0.88485364     0.42564718
     0.48750000     0.93247269     0.42564718
     0.48750000     0.98009174     0.42564718
     0.51250000     0.02771079     0.42564718
     0.51250000     0.07532983     0.42564718
     0.51250000     0.12294888     0.42564718
     0.51250000     0.17056793     0.42564718
     0.51250000     0.21818698     0.42564718
     0.51250000     0.26580602     0.42564718
     0.51250000     0.31342507     0.42564718
     0.51250000     0.36104412     0.42564718
     0.51250000     0.40866317     0.42564718
     0.51250000     0.45628222     0.42564718
     0.51250000     0.50390126     0.42564718
     0.51250000     0.55152031     0.42564718
     0.51250000     0.59913936     0.42564718
     0.51250000     0.64675841     0.42564718
     0.51250000     0.69437745     0.42564718
     0.51250000     0.74199650     0.42564718
     0.51250000     0.78961555     0.42564718
     0.51250000     0.83723460     0.42564718
     0.51250000     0.88485364     0.42564718
     0.51250000     0.93247269     0.42564718
     0.51250000     0.98009174     0.42564718
     0.53750000     0.02771079     0.42564718
     0.53750000     0.07532983     0.42564718
     0.53750000     0.12294888     0.42564718
     0.53750000     0.17056793     0.42564718
     0.53750000     0.21818698     0.42564718
     0.53750000     0.26580602     0.42564718
     0.53750000     0.31342507     0.42564718
     0.53750000     0.36104412     0.42564718
     0.53750000     0.40866317     0.42564718
     0.53750000     0.45628222     0.42564718
     0.53750000     0.50390126     0.42564718
     0.53750000     0.55152031     0.42564718
     0.53750000     0.59913936     0.42564718
     0.53750000     0.64675841     0.42564718
     0.53750000     0.69437745     0.42564718
     0.53750000     0.74199650     0.42564718
     0.53750000     0.78961555     0.42564718
     0.53750000     0.83723460     0.42564718
     0.53750000     0.88485364     0.42564718
     0.53750000     0.93247269     0.42564718
     0.53750000     0.98009174     0.42564718
     0.56250000     0.02771079     0.42564718
     0.56250000     0.07532983     0.42564718
     0.56250000     0.12294888     0.42564718
     0.56250000     0.17056793     0.42564718
     0.56250000     0.21818698     0.42564718
     0.56250000     0.26580602     0.42564718
     0.56250000     0.31342507     0.42564718
     0.56250000     0.36104412     0.42564718
     0.56250000     0.40866317     0.42564718
     0.56250000     0.45628222     0.42564718
     0.56250000     0.50390126     0.42564718
     0.56250000     0.55152031     0.42564718
     0.56250000     0.59913936     0.42564718
     0.56250000     0.64675841     0.42564718
     0.56250000     0.69437745     0.42564718
     0.56250000     0.74199650     0.42564718
     0.56250000     0.78961555     0.42564718
     0.56250000     0.83723460     0.42564718
     0.56250000     0.88485364     0.42564718
     0.56250000     0.93247269     0.42564718
     0.56250000     0.98009174     0.42564718
     0.58750000     0.02771079     0.42564718
     0.58750000     0.07532983     0.42564718
     0.58750000     0.12294888     0.42564718
     0.58750000     0.17056793     0.42564718
     0.58750000     0.21818698     0.42564718
     0.58750000     0.26580602     0.42564718
     0.58750000     0.31342507     0.42564718
     0.58750000     0.36104412     0.42564718
     0.58750000     0.40866317     0.42564718
     0.58750000     0.45628222     0.42564718
     0.58750000     0.50390126     0.42564718
     0.58750000     0.55152031     0.42564718
     0.58750000     0.59913936     0.42564718
     0.58750000     0.64675841     0.42564718
     0.58750000     0.69437745     0.42564718
     0.58750000     0.74199650     0.42564718
     0.58750000     0.78961555     0.42564718
     0.58750000     0.83723460     0.42564718
     0.58750000     0.88485364     0.42564718
     0.58750000     0.93247269     0.42564718
     0.58750000     0.98009174     0.42564718
     0.61250000     0.02771079     0.42564718
     0.61250000     0.07532983     0.42564718
     0.61250000     0.12294888     0.42564718
     0.61250000     0.17056793     0.42564718
     0.61250000     0.21818698     0.42564718
     0.61250000     0.26580602     0.42564718
     0.61250000     0.31342507     0.42564718
     0.61250000     0.36104412     0.42564718
     0.61250000     0.40866317     0.42564718
     0.61250000     0.45628222     0.42564718
     0.61250000     0.50390126     0.42564718
     0.61250000     0.55152031     0.42564718
     0.61250000     0.59913936     0.42564718
     0.61250000     0.64675841     0.42564718
     0.61250000     0.69437745     0.42564718
     0.61250000     0.74199650     0.42564718
     0.61250000     0.78961555     0.42564718
     0.61250000     0.83723460     0.42564718
     0.61250000     0.88485364     0.42564718
     0.61250000     0.93247269     0.42564718
     0.61250000     0.98009174     0.42564718
     0.63750000     0.02771079     0.42564718
     0.63750000     0.07532983     0.42564718
     0.63750000     0.12294888     0.42564718
     0.63750000     0.17056793     0.42564718
     0.63750000     0.21818698     0.42564718
     0.63750000     0.26580602     0.42564718
     0.63750000     0.31342507     0.42564718
     0.63750000     0.36104412     0.42564718
     0.63750000     0.40866317     0.42564718
     0.63750000     0.45628222     0.42564718
     0.63750000     0.50390126     0.42564718
     0.63750000     0.55152031     0.42564718
     0.63750000     0.59913936     0.42564718
     0.63750000     0.64675841     0.42564718
     0.63750000     0.69437745     0.42564718
     0.63750000     0.74199650     0.42564718
     0.63750000     0.78961555     0.42564718
     0.63750000     0.83723460     0.42564718
     0.63750000     0.88485364     0.42564718
     0.63750000     0.93247269     0.42564718
     0.63750000     0.98009174     0.42564718
     0.66250000     0.02771079     0.42564718
     0.66250000     0.07532983     0.42564718
     0.66250000     0.12294888     0.42564718
     0.66250000     0.17056793     0.42564718
     0.66250000     0.21818698     0.42564718
     0.66250000     0.26580602     0.42564718
     0.66250000     0.31342507     0.42564718
     0.66250000     0.36104412     0.42564718
     0.66250000     0.40866317     0.42564718
     0.66250000     0.45628222     0.42564718
     0.66250000     0.50390126     0.42564718
     0.66250000     0.55152031     0.42564718
     0.66250000     0.59913936     0.42564718
     0.66250000     0.64675841     0.42564718
     0.66250000     0.69437745     0.42564718
     0.66250000     0.74199650     0.42564718
     0.66250000     0.78961555     0.42564718
     0.66250000     0.83723460     0.42564718
     0.66250000     0.88485364     0.42564718
     0.66250000     0.93247269     0.42564718
     0.66250000     0.98009174     0.42564718
     0.68750000     0.02771079     0.42564718
     0.68750000     0.07532983     0.42564718
     0.68750000     0.12294888     0.42564718
     0.68750000     0.17056793     0.42564718
     0.68750000     0.21818698     0.42564718
     0.68750000     0.26580602     0.42564718
     0.68750000     0.31342507     0.42564718
     0.68750000     0.36104412     0.42564718
     0.68750000     0.40866317     0.42564718
     0.68750000     0.45628222     0.42564718
     0.68750000     0.50390126     0.42564718
     0.68750000     0.55152031     0.42564718
     0.68750000     0.59913936     0.42564718
     0.68750000     0.64675841     0.42564718
     0.68750000     0.69437745     0.42564718
     0.68750000     0.74199650     0.42564718
     0.68750000     0.78961555     0.42564718
     0.68750000     0.83723460     0.42564718
     0.68750000     0.88485364     0.42564718
     0.68750000     0.93247269     0.42564718
     0.68750000     0.98009174     0.42564718
     0.71250000     0.02771079     0.42564718
     0.71250000     0.07532983     0.42564718
     0.71250000     0.12294888     0.42564718
     0.71250000     0.17056793     0.42564718
     0.71250000     0.21818698     0.42564718
     0.71250000     0.26580602     0.42564718
     0.71250000     0.31342507     0.42564718
     0.71250000     0.36104412     0.42564718
     0.71250000     0.40866317     0.42564718
     0.71250000     0.45628222     0.42564718
     0.71250000     0.50390126     0.42564718
     0.71250000     0.55152031     0.42564718
     0.71250000     0.59913936     0.42564718
     0.71250000     0.64675841     0.42564718
     0.71250000     0.69437745     0.42564718
     0.71250000     0.74199650     0.42564718
     0.71250000     0.78961555     0.42564718
     0.71250000     0.83723460     0.42564718
     0.71250000     0.88485364     0.42564718
     0.71250000     0.93247269     0.42564718
     0.71250000     0.98009174     0.42564718
     0.73750000     0.02771079     0.42564718
     0.73750000     0.07532983     0.42564718
     0.73750000     0.12294888     0.42564718
     0.73750000     0.17056793     0.42564718
     0.73750000     0.21818698     0.42564718
     0.73750000     0.26580602     0.42564718
     0.73750000     0.31342507     0.42564718
     0.73750000     0.36104412     0.42564718
     0.73750000     0.40866317     0.42564718
     0.73750000     0.45628222     0.42564718
     0.73750000     0.50390126     0.42564718
     0.73750000     0.55152031     0.42564718
     0.73750000     0.59913936     0.42564718
     0.73750000     0.64675841     0.42564718
     0.73750000     0.69437745     0.42564718
     0.73750000     0.74199650     0.42564718
     0.73750000     0.78961555     0.42564718
     0.73750000     0.83723460     0.42564718
     0.73750000     0.88485364     0.42564718
     0.73750000     0.93247269     0.42564718
     0.73750000     0.98009174     0.42564718
     0.76250000     0.02771079     0.42564718
     0.76250000     0.07532983     0.42564718
     0.76250000     0.12294888     0.42564718
     0.76250000     0.17056793     0.42564718
     0.76250000     0.21818698     0.42564718
     0.76250000     0.26580602     0.42564718
     0.76250000     0.31342507     0.42564718
     0.76250000     0.36104412     0.42564718
     0.76250000     0.40866317     0.42564718
     0.76250000     0.45628222     0.42564718
     0.76250000     0.50390126     0.42564718
     0.76250000     0.55152031     0.42564718
     0.76250000     0.59913936     0.42564718
     0.76250000     0.64675841     0.42564718
     0.76250000     0.69437745     0.42564718
     0.76250000     0.74199650     0.42564718
     0.76250000     0.78961555     0.42564718