b-P                                     
   1.00000000000000     
     3.2969996349473898    0.0000000000000000    0.0000000000000000
     0.0000000000000000    4.4304863288506597    0.0000000000000000
     0.0000000000000000    0.0000000000000000   20.0000000000000000
   P 
     4
Direct
  0.0000000000000000  0.5819265205963493  0.4256471811298128
  0.0000000000000000  0.4175347961689474  0.3194191294526076
  0.5000000000000000  0.0824652118310532  0.3194191294526076
  0.5000000000000000  0.9180734794036507  0.4256471811298128
