Generated by Twist2D
    1.0
     164.84998175       0.00000000       0.00000000
       0.00000000     115.19264455       0.00000000
       0.00000000       0.00000000      20.00000000
    P
    10404
Direct
     0.01000000     0.02238179     0.42564718
     0.01000000     0.06084333     0.42564718
     0.01000000     0.09930487     0.42564718
     0.01000000     0.13776640     0.42564718
     0.01000000     0.17622794     0.42564718
     0.01000000     0.21468948     0.42564718
     0.01000000     0.25315102     0.42564718
     0.01000000     0.29161256     0.42564718
     0.01000000     0.33007410     0.42564718
     0.01000000     0.36853564     0.42564718
     0.01000000     0.40699717     0.42564718
     0.01000000     0.44545871     0.42564718
     0.01000000     0.48392025     0.42564718
     0.01000000     0.52238179     0.42564718
     0.01000000     0.56084333     0.42564718
     0.01000000     0.59930487     0.42564718
     0.01000000     0.63776640     0.42564718
     0.01000000     0.67622794     0.42564718
     0.01000000     0.71468948     0.42564718
     0.01000000     0.75315102     0.42564718
     0.01000000     0.79161256     0.42564718
     0.01000000     0.83007410     0.42564718
     0.01000000     0.86853564     0.42564718
     0.01000000     0.90699717     0.42564718
     0.01000000     0.94545871     0.42564718
     0.01000000     0.98392025     0.42564718
     0.03000000     0.02238179     0.42564718
     0.03000000     0.06084333     0.42564718
     0.03000000     0.09930487     0.42564718
     0.03000000     0.13776640     0.42564718
     0.03000000     0.17622794     0.42564718
     0.03000000     0.21468948     0.42564718
     0.03000000     0.25315102     0.42564718
     0.03000000     0.29161256     0.42564718
     0.03000000     0.33007410     0.42564718
     0.03000000     0.36853564     0.42564718
     0.03000000     0.40699717     0.42564718
     0.03000000     0.44545871     0.42564718
     0.03000000     0.48392025     0.42564718
     0.03000000     0.52238179     0.42564718
     0.03000000     0.56084333     0.42564718
     0.03000000     0.59930487     0.42564718
     0.03000000     0.63776640     0.42564718
     0.03000000     0.67622794     0.42564718
     0.03000000     0.71468948     0.42564718
     0.03000000     0.75315102     0.42564718
     0.03000000     0.79161256     0.42564718
     0.03000000     0.83007410     0.42564718
     0.03000000     0.86853564     0.42564718
     0.03000000     0.90699717     0.42564718
     0.03000000     0.94545871     0.42564718
     0.03000000     0.98392025     0.42564718
     0.05000000     0.02238179     0.42564718
     0.05000000     0.06084333     0.42564718
     0.05000000     0.09930487     0.42564718
     0.05000000     0.13776640     0.42564718
     0.05000000     0.17622794     0.42564718
     0.05000000     0.21468948     0.42564718
     0.05000000     0.25315102     0.42564718
     0.05000000     0.29161256     0.42564718
     0.05000000     0.33007410     0.42564718
     0.05000000     0.36853564     0.42564718
     0.05000000     0.40699717     0.42564718
     0.05000000     0.44545871     0.42564718
     0.05000000     0.48392025     0.42564718
     0.05000000     0.52238179     0.42564718
     0.05000000     0.56084333     0.42564718
     0.05000000     0.59930487     0.42564718
     0.05000000     0.63776640     0.42564718
     0.05000000     0.67622794     0.42564718
     0.05000000     0.71468948     0.42564718
     0.05000000     0.75315102     0.42564718
     0.05000000     0.79161256     0.42564718
     0.05000000     0.83007410     0.42564718
     0.05000000     0.86853564     0.42564718
     0.05000000     0.90699717     0.42564718
     0.05000000     0.94545871     0.42564718
     0.05000000     0.98392025     0.42564718
     0.07000000     0.02238179     0.42564718
     0.07000000     0.06084333     0.42564718
     0.07000000     0.09930487     0.42564718
     0.07000000     0.13776640     0.42564718
     0.07000000     0.17622794     0.42564718
     0.07000000     0.21468948     0.42564718
     0.07000000     0.25315102     0.42564718
     0.07000000     0.29161256     0.42564718
     0.07000000     0.33007410     0.42564718
     0.07000000     0.36853564     0.42564718
     0.07000000     0.40699717     0.42564718
     0.07000000     0.44545871     0.42564718
     0.07000000     0.48392025     0.42564718
     0.07000000     0.52238179     0.42564718
     0.07000000     0.56084333     0.42564718
     0.07000000     0.59930487     0.42564718
     0.07000000     0.63776640     0.42564718
     0.07000000     0.67622794     0.42564718
     0.07000000     0.71468948     0.42564718
     0.07000000     0.75315102     0.42564718
     0.07000000     0.79161256     0.42564718
     0.07000000     0.83007410     0.42564718
     0.07000000     0.86853564     0.42564718
     0.07000000     0.90699717     0.42564718
     0.07000000     0.94545871     0.42564718
     0.07000000     0.98392025     0.42564718
     0.09000000     0.02238179     0.42564718
     0.09000000     0.06084333     0.42564718
     0.09000000     0.09930487     0.42564718
     0.09000000     0.13776640     0.42564718
     0.09000000     0.17622794     0.42564718
     0.09000000     0.21468948     0.42564718
     0.09000000     0.25315102     0.42564718
     0.09000000     0.29161256     0.42564718
     0.09000000     0.33007410     0.42564718
     0.09000000     0.36853564     0.42564718
     0.09000000     0.40699717     0.42564718
     0.09000000     0.44545871     0.42564718
     0.09000000     0.48392025     0.42564718
     0.09000000     0.52238179     0.42564718
     0.09000000     0.56084333     0.42564718
     0.09000000     0.59930487     0.42564718
     0.09000000     0.63776640     0.42564718
     0.09000000     0.67622794     0.42564718
     0.09000000     0.71468948     0.42564718
     0.09000000     0.75315102     0.42564718
     0.09000000     0.79161256     0.42564718
     0.09000000     0.83007410     0.42564718
     0.09000000     0.86853564     0.42564718
     0.09000000     0.90699717     0.42564718
     0.09000000     0.94545871     0.42564718
     0.09000000     0.98392025     0.42564718
     0.11000000     0.02238179     0.42564718
     0.11000000     0.06084333     0.42564718
     0.11000000     0.09930487     0.42564718
     0.11000000     0.13776640     0.42564718
     0.11000000     0.17622794     0.42564718
     0.11000000     0.21468948     0.42564718
     0.11000000     0.25315102     0.42564718
     0.11000000     0.29161256     0.42564718
     0.11000000     0.33007410     0.42564718
     0.11000000     0.36853564     0.42564718
     0.11000000     0.40699717     0.42564718
     0.11000000     0.44545871     0.42564718
     0.11000000     0.48392025     0.42564718
     0.11000000     0.52238179     0.42564718
     0.11000000     0.56084333     0.42564718
     0.11000000     0.59930487     0.42564718
     0.11000000     0.63776640     0.42564718
     0.11000000     0.67622794     0.42564718
     0.11000000     0.71468948     0.42564718
     0.11000000     0.75315102     0.42564718
     0.11000000     0.79161256     0.42564718
     0.11000000     0.83007410     0.42564718
     0.11000000     0.86853564     0.42564718
     0.11000000     0.90699717     0.42564718
     0.11000000     0.94545871     0.42564718
     0.11000000     0.98392025     0.42564718
     0.13000000     0.02238179     0.42564718
     0.13000000     0.06084333     0.42564718
     0.13000000     0.09930487     0.42564718
     0.13000000     0.13776640     0.42564718
     0.13000000     0.17622794     0.42564718
     0.13000000     0.21468948     0.42564718
     0.13000000     0.25315102     0.42564718
     0.13000000     0.29161256     0.42564718
     0.13000000     0.33007410     0.42564718
     0.13000000     0.36853564     0.42564718
     0.13000000     0.40699717     0.42564718
     0.13000000     0.44545871     0.42564718
     0.13000000     0.48392025     0.42564718
     0.13000000     0.52238179     0.42564718
     0.13000000     0.56084333     0.42564718
     0.13000000     0.59930487     0.42564718
     0.13000000     0.63776640     0.42564718
     0.13000000     0.67622794     0.42564718
     0.13000000     0.71468948     0.42564718
     0.13000000     0.75315102     0.42564718
     0.13000000     0.79161256     0.42564718
     0.13000000     0.83007410     0.42564718
     0.13000000     0.86853564     0.42564718
     0.13000000     0.90699717     0.42564718
     0.13000000     0.94545871     0.42564718
     0.13000000     0.98392025     0.42564718
     0.15000000     0.02238179     0.42564718
     0.15000000     0.06084333     0.42564718
     0.15000000     0.09930487     0.42564718
     0.15000000     0.13776640     0.42564718
     0.15000000     0.17622794     0.42564718
     0.15000000     0.21468948     0.42564718
     0.15000000     0.25315102     0.42564718
     0.15000000     0.29161256     0.42564718
     0.15000000     0.33007410     0.42564718
     0.15000000     0.36853564     0.42564718
     0.15000000     0.40699717     0.42564718
     0.15000000     0.44545871     0.42564718
     0.15000000     0.48392025     0.42564718
     0.15000000     0.52238179     0.42564718
     0.15000000     0.56084333     0.42564718
     0.15000000     0.59930487     0.42564718
     0.15000000     0.63776640     0.42564718
     0.15000000     0.67622794     0.42564718
     0.15000000     0.71468948     0.42564718
     0.15000000     0.75315102     0.42564718
     0.15000000     0.79161256     0.42564718
     0.15000000     0.83007410     0.42564718
     0.15000000     0.86853564     0.42564718
     0.15000000     0.90699717     0.42564718
     0.15000000     0.94545871     0.42564718
     0.15000000     0.98392025     0.42564718
     0.17000000     0.02238179     0.42564718
     0.17000000     0.06084333     0.42564718
     0.17000000     0.09930487     0.42564718
     0.17000000     0.13776640     0.42564718
     0.17000000     0.17622794     0.42564718
     0.17000000     0.21468948     0.42564718
     0.17000000     0.25315102     0.42564718
     0.17000000     0.29161256     0.42564718
     0.17000000     0.33007410     0.42564718
     0.17000000     0.36853564     0.42564718
     0.17000000     0.40699717     0.42564718
     0.17000000     0.44545871     0.42564718
     0.17000000     0.48392025     0.42564718
     0.17000000     0.52238179     0.42564718
     0.17000000     0.56084333     0.42564718
     0.17000000     0.59930487     0.42564718
     0.17000000     0.63776640     0.42564718
     0.17000000     0.67622794     0.42564718
     0.17000000     0.71468948     0.42564718
     0.17000000     0.75315102     0.42564718
     0.17000000     0.79161256     0.42564718
     0.17000000     0.83007410     0.42564718
     0.17000000     0.86853564     0.42564718
     0.17000000     0.90699717     0.42564718
     0.17000000     0.94545871     0.42564718
     0.17000000     0.98392025     0.42564718
     0.19000000     0.02238179     0.42564718
     0.19000000     0.06084333     0.42564718
     0.19000000     0.09930487     0.42564718
     0.19000000     0.13776640     0.42564718
     0.19000000     0.17622794     0.42564718
     0.19000000     0.21468948     0.42564718
     0.19000000     0.25315102     0.42564718
     0.19000000     0.29161256     0.42564718
     0.19000000     0.33007410     0.42564718
     0.19000000     0.36853564     0.42564718
     0.19000000     0.40699717     0.42564718
     0.19000000     0.44545871     0.42564718
     0.19000000     0.48392025     0.42564718
     0.19000000     0.52238179     0.42564718
     0.19000000     0.56084333     0.42564718
     0.19000000     0.59930487     0.42564718
     0.19000000     0.63776640     0.42564718
     0.19000000     0.67622794     0.42564718
     0.19000000     0.71468948     0.42564718
     0.19000000     0.75315102     0.42564718
     0.19000000     0.79161256     0.42564718
     0.19000000     0.83007410     0.42564718
     0.19000000     0.86853564     0.42564718
     0.19000000     0.90699717     0.42564718
     0.19000000     0.94545871     0.42564718
     0.19000000     0.98392025     0.42564718
     0.21000000     0.02238179     0.42564718
     0.21000000     0.06084333     0.42564718
     0.21000000     0.09930487     0.42564718
     0.21000000     0.13776640     0.42564718
     0.21000000     0.17622794     0.42564718
     0.21000000     0.21468948     0.42564718
     0.21000000     0.25315102     0.42564718
     0.21000000     0.29161256     0.42564718
     0.21000000     0.33007410     0.42564718
     0.21000000     0.36853564     0.42564718
     0.21000000     0.40699717     0.42564718
     0.21000000     0.44545871     0.42564718
     0.21000000     0.48392025     0.42564718
     0.21000000     0.52238179     0.42564718
     0.21000000     0.56084333     0.42564718
     0.21000000     0.59930487     0.42564718
     0.21000000     0.63776640     0.42564718
     0.21000000     0.67622794     0.42564718
     0.21000000     0.71468948     0.42564718
     0.21000000     0.75315102     0.42564718
     0.21000000     0.79161256     0.42564718
     0.21000000     0.83007410     0.42564718
     0.21000000     0.86853564     0.42564718
     0.21000000     0.90699717     0.42564718
     0.21000000     0.94545871     0.42564718
     0.21000000     0.98392025     0.42564718
     0.23000000     0.02238179     0.42564718
     0.23000000     0.06084333     0.42564718
     0.23000000     0.09930487     0.42564718
     0.23000000     0.13776640     0.42564718
     0.23000000     0.17622794     0.42564718
     0.23000000     0.21468948     0.42564718
     0.23000000     0.25315102     0.42564718
     0.23000000     0.29161256     0.42564718
     0.23000000     0.33007410     0.42564718
     0.23000000     0.36853564     0.42564718
     0.23000000     0.40699717     0.42564718
     0.23000000     0.44545871     0.42564718
     0.23000000     0.48392025     0.42564718
     0.23000000     0.52238179     0.42564718
     0.23000000     0.56084333     0.42564718
     0.23000000     0.59930487     0.42564718
     0.23000000     0.63776640     0.42564718
     0.23000000     0.67622794     0.42564718
     0.23000000     0.71468948     0.42564718
     0.23000000     0.75315102     0.42564718
     0.23000000     0.79161256     0.42564718
     0.23000000     0.83007410     0.42564718
     0.23000000     0.86853564     0.42564718
     0.23000000     0.90699717     0.42564718
     0.23000000     0.94545871     0.42564718
     0.23000000     0.98392025     0.42564718
     0.25000000     0.02238179     0.42564718
     0.25000000     0.06084333     0.42564718
     0.25000000     0.09930487     0.42564718
     0.25000000     0.13776640     0.42564718
     0.25000000     0.17622794     0.42564718
     0.25000000     0.21468948     0.42564718
     0.25000000     0.25315102     0.42564718
     0.25000000     0.29161256     0.42564718
     0.25000000     0.33007410     0.42564718
     0.25000000     0.36853564     0.42564718
     0.25000000     0.40699717     0.42564718
     0.25000000     0.44545871     0.42564718
     0.25000000     0.48392025     0.42564718
     0.25000000     0.52238179     0.42564718
     0.25000000     0.56084333     0.42564718
     0.25000000     0.59930487     0.42564718
     0.25000000     0.63776640     0.42564718
     0.25000000     0.67622794     0.42564718
     0.25000000     0.71468948     0.42564718
     0.25000000     0.75315102     0.42564718
     0.25000000     0.79161256     0.42564718
     0.25000000     0.83007410     0.42564718
     0.25000000     0.86853564     0.42564718
     0.25000000     0.90699717     0.42564718
     0.25000000     0.94545871     0.42564718
     0.25000000     0.98392025     0.42564718
     0.27000000     0.02238179     0.42564718
     0.27000000     0.06084333     0.42564718
     0.27000000     0.09930487     0.42564718
     0.27000000     0.13776640     0.42564718
     0.27000000     0.17622794     0.42564718
     0.27000000     0.21468948     0.42564718
     0.27000000     0.25315102     0.42564718
     0.27000000     0.29161256     0.42564718
     0.27000000     0.33007410     0.42564718
     0.27000000     0.36853564     0.42564718
     0.27000000     0.40699717     0.42564718
     0.27000000     0.44545871     0.42564718
     0.27000000     0.48392025     0.42564718
     0.27000000     0.52238179     0.42564718
     0.27000000     0.56084333     0.42564718
     0.27000000     0.59930487     0.42564718
     0.27000000     0.63776640     0.42564718
     0.27000000     0.67622794     0.42564718
     0.27000000     0.71468948     0.42564718
     0.27000000     0.75315102     0.42564718
     0.27000000     0.79161256     0.42564718
     0.27000000     0.83007410     0.42564718
     0.27000000     0.86853564     0.42564718
     0.27000000     0.90699717     0.42564718
     0.27000000     0.94545871     0.42564718
     0.27000000     0.98392025     0.42564718
     0.29000000     0.02238179     0.42564718
     0.29000000     0.06084333     0.42564718
     0.29000000     0.09930487     0.42564718
     0.29000000     0.13776640     0.42564718
     0.29000000     0.17622794     0.42564718
     0.29000000     0.21468948     0.42564718
     0.29000000     0.25315102     0.42564718
     0.29000000     0.29161256     0.42564718
     0.29000000     0.33007410     0.42564718
     0.29000000     0.36853564     0.42564718
     0.29000000     0.40699717     0.42564718
     0.29000000     0.44545871     0.42564718
     0.29000000     0.48392025     0.42564718
     0.29000000     0.52238179     0.42564718
     0.29000000     0.56084333     0.42564718
     0.29000000     0.59930487     0.42564718
     0.29000000     0.63776640     0.42564718
     0.29000000     0.67622794     0.42564718
     0.29000000     0.71468948     0.42564718
     0.29000000     0.75315102     0.42564718
     0.29000000     0.79161256     0.42564718
     0.29000000     0.83007410     0.42564718
     0.29000000     0.86853564     0.42564718
     0.29000000     0.90699717     0.42564718
     0.29000000     0.94545871     0.42564718
     0.29000000     0.98392025     0.42564718
     0.31000000     0.02238179     0.42564718
     0.31000000     0.06084333     0.42564718
     0.31000000     0.09930487     0.42564718
     0.31000000     0.13776640     0.42564718
     0.31000000     0.17622794     0.42564718
     0.31000000     0.21468948     0.42564718
     0.31000000     0.25315102     0.42564718
     0.31000000     0.29161256     0.42564718
     0.31000000     0.33007410     0.42564718
     0.31000000     0.36853564     0.42564718
     0.31000000     0.40699717     0.42564718
     0.31000000     0.44545871     0.42564718
     0.31000000     0.48392025     0.42564718
     0.31000000     0.52238179     0.42564718
     0.31000000     0.56084333     0.42564718
     0.31000000     0.59930487     0.42564718
     0.31000000     0.63776640     0.42564718
     0.31000000     0.67622794     0.42564718
     0.31000000     0.71468948     0.42564718
     0.31000000     0.75315102     0.42564718
     0.31000000     0.79161256     0.42564718
     0.31000000     0.83007410     0.42564718
     0.31000000     0.86853564     0.42564718
     0.31000000     0.90699717     0.42564718
     0.31000000     0.94545871     0.42564718
     0.31000000     0.98392025     0.42564718
     0.33000000     0.02238179     0.42564718
     0.33000000     0.06084333     0.42564718
     0.33000000     0.09930487     0.42564718
     0.33000000     0.13776640     0.42564718
     0.33000000     0.17622794     0.42564718
     0.33000000     0.21468948     0.42564718
     0.33000000     0.25315102     0.42564718
     0.33000000     0.29161256     0.42564718
     0.33000000     0.33007410     0.42564718
     0.33000000     0.36853564     0.42564718
     0.33000000     0.40699717     0.42564718
     0.33000000     0.44545871     0.42564718
     0.33000000     0.48392025     0.42564718
     0.33000000     0.52238179     0.42564718
     0.33000000     0.56084333     0.42564718
     0.33000000     0.59930487     0.42564718
     0.33000000     0.63776640     0.42564718
     0.33000000     0.67622794     0.42564718
     0.33000000     0.71468948     0.42564718
     0.33000000     0.75315102     0.42564718
     0.33000000     0.79161256     0.42564718
     0.33000000     0.83007410     0.42564718
     0.33000000     0.86853564     0.42564718
     0.33000000     0.90699717     0.42564718
     0.33000000     0.94545871     0.42564718
     0.33000000     0.98392025     0.42564718
     0.35000000     0.02238179     0.42564718
     0.35000000     0.06084333     0.42564718
     0.35000000     0.09930487     0.42564718
     0.35000000     0.13776640     0.42564718
     0.35000000     0.17622794     0.42564718
     0.35000000     0.21468948     0.42564718
     0.35000000     0.25315102     0.42564718
     0.35000000     0.29161256     0.42564718
     0.35000000     0.33007410     0.42564718
     0.35000000     0.36853564     0.42564718
     0.35000000     0.40699717     0.42564718
     0.35000000     0.44545871     0.42564718
     0.35000000     0.48392025     0.42564718
     0.35000000     0.52238179     0.42564718
     0.35000000     0.56084333     0.42564718
     0.35000000     0.59930487     0.42564718
     0.35000000     0.63776640     0.42564718
     0.35000000     0.67622794     0.42564718
     0.35000000     0.71468948     0.42564718
     0.35000000     0.75315102     0.42564718
     0.35000000     0.79161256     0.42564718
     0.35000000     0.83007410     0.42564718
     0.35000000     0.86853564     0.42564718
     0.35000000     0.90699717     0.42564718
     0.35000000     0.94545871     0.42564718
     0.35000000     0.98392025     0.42564718
     0.37000000     0.02238179     0.42564718
     0.37000000     0.06084333     0.42564718
     0.37000000     0.09930487     0.42564718
     0.37000000     0.13776640     0.42564718
     0.37000000     0.17622794     0.42564718
     0.37000000     0.21468948     0.42564718
     0.37000000     0.25315102     0.42564718
     0.37000000     0.29161256     0.42564718
     0.37000000     0.33007410     0.42564718
     0.37000000     0.36853564     0.42564718
     0.37000000     0.40699717     0.42564718
     0.37000000     0.44545871     0.42564718
     0.37000000     0.48392025     0.42564718
     0.37000000     0.52238179     0.42564718
     0.37000000     0.56084333     0.42564718
     0.37000000     0.59930487     0.42564718
     0.37000000     0.63776640     0.42564718
     0.37000000     0.67622794     0.42564718
     0.37000000     0.71468948     0.42564718
     0.37000000     0.75315102     0.42564718
     0.37000000     0.79161256     0.42564718
     0.37000000     0.83007410     0.42564718
     0.37000000     0.86853564     0.42564718
     0.37000000     0.90699717     0.42564718
     0.37000000     0.94545871     0.42564718
     0.37000000     0.98392025     0.42564718
     0.39000000     0.02238179     0.42564718
     0.39000000     0.06084333     0.42564718
     0.39000000     0.09930487     0.42564718
     0.39000000     0.13776640     0.42564718
     0.39000000     0.17622794     0.42564718
     0.39000000     0.21468948     0.42564718
     0.39000000     0.25315102     0.42564718
     0.39000000     0.29161256     0.42564718
     0.39000000     0.33007410     0.42564718
     0.39000000     0.36853564     0.42564718
     0.39000000     0.40699717     0.42564718
     0.39000000     0.44545871     0.42564718
     0.39000000     0.48392025     0.42564718
     0.39000000     0.52238179     0.42564718
     0.39000000     0.56084333     0.42564718
     0.39000000     0.59930487     0.42564718
     0.39000000     0.63776640     0.42564718
     0.39000000     0.67622794     0.42564718
     0.39000000     0.71468948     0.42564718
     0.39000000     0.75315102     0.42564718
     0.39000000     0.79161256     0.42564718
     0.39000000     0.83007410     0.42564718
     0.39000000     0.86853564     0.42564718
     0.39000000     0.90699717     0.42564718
     0.39000000     0.94545871     0.42564718
     0.39000000     0.98392025     0.42564718
     0.41000000     0.02238179     0.42564718
     0.41000000     0.06084333     0.42564718
     0.41000000     0.09930487     0.42564718
     0.41000000     0.13776640     0.42564718
     0.41000000     0.17622794     0.42564718
     0.41000000     0.21468948     0.42564718
     0.41000000     0.25315102     0.42564718
     0.41000000     0.29161256     0.42564718
     0.41000000     0.33007410     0.42564718
     0.41000000     0.36853564     0.42564718
     0.41000000     0.40699717     0.42564718
     0.41000000     0.44545871     0.42564718
     0.41000000     0.48392025     0.42564718
     0.41000000     0.52238179     0.42564718
     0.41000000     0.56084333     0.42564718
     0.41000000     0.59930487     0.42564718
     0.41000000     0.63776640     0.42564718
     0.41000000     0.67622794     0.42564718
     0.41000000     0.71468948     0.42564718
     0.41000000     0.75315102     0.42564718
     0.41000000     0.79161256     0.42564718
     0.41000000     0.83007410     0.42564718
     0.41000000     0.86853564     0.42564718
     0.41000000     0.90699717     0.42564718
     0.41000000     0.94545871     0.42564718
     0.41000000     0.98392025     0.42564718
     0.43000000     0.02238179     0.42564718
     0.43000000     0.06084333     0.42564718
     0.43000000     0.09930487     0.42564718
     0.43000000     0.13776640     0.42564718
     0.43000000     0.17622794     0.42564718
     0.43000000     0.21468948     0.42564718
     0.43000000     0.25315102     0.42564718
     0.43000000     0.29161256     0.42564718
     0.43000000     0.33007410     0.42564718
     0.43000000     0.36853564     0.42564718
     0.43000000     0.40699717     0.42564718
     0.43000000     0.44545871     0.42564718
     0.43000000     0.48392025     0.42564718
     0.43000000     0.52238179     0.42564718
     0.43000000     0.56084333     0.42564718
     0.43000000     0.59930487     0.42564718
     0.43000000     0.63776640     0.42564718
     0.43000000     0.67622794     0.42564718
     0.43000000     0.71468948     0.42564718
     0.43000000     0.75315102     0.42564718
     0.43000000     0.79161256     0.42564718
     0.43000000     0.83007410     0.42564718
     0.43000000     0.86853564     0.42564718
     0.43000000     0.90699717     0.42564718
     0.43000000     0.94545871     0.42564718
     0.43000000     0.98392025     0.42564718
     0.45000000     0.02238179     0.42564718
     0.45000000     0.06084333     0.42564718
     0.45000000     0.09930487     0.42564718
     0.45000000     0.13776640     0.42564718
     0.45000000     0.17622794     0.42564718
     0.45000000     0.21468948     0.42564718
     0.45000000     0.25315102     0.42564718
     0.45000000     0.29161256     0.42564718
     0.45000000     0.33007410     0.42564718
     0.45000000     0.36853564     0.42564718
     0.45000000     0.40699717     0.42564718
     0.45000000     0.44545871     0.42564718
     0.45000000     0.48392025     0.42564718
     0.45000000     0.52238179     0.42564718
     0.45000000     0.56084333     0.42564718
     0.45000000     0.59930487     0.42564718
     0.45000000     0.63776640     0.42564718
     0.45000000     0.67622794     0.42564718
     0.45000000     0.71468948     0.42564718
     0.45000000     0.75315102     0.42564718
     0.45000000     0.79161256     0.42564718
     0.45000000     0.83007410     0.42564718
     0.45000000     0.86853564     0.42564718
     0.45000000     0.90699717     0.42564718
     0.45000000     0.94545871     0.42564718
     0.45000000     0.98392025     0.42564718
     0.47000000     0.02238179     0.42564718
     0.47000000     0.06084333     0.42564718
     0.47000000     0.09930487     0.42564718
     0.47000000     0.13776640     0.42564718
     0.47000000     0.17622794     0.42564718
     0.47000000     0.21468948     0.42564718
     0.47000000     0.25315102     0.42564718
     0.47000000     0.29161256     0.42564718
     0.47000000     0.33007410     0.42564718
     0.47000000     0.36853564     0.42564718
     0.47000000     0.40699717     0.42564718
     0.47000000     0.44545871     0.42564718
     0.47000000     0.48392025     0.42564718
     0.47000000     0.52238179     0.42564718
     0.47000000     0.56084333     0.42564718
     0.47000000     0.59930487     0.42564718
     0.47000000     0.63776640     0.42564718
     0.47000000     0.67622794     0.42564718
     0.47000000     0.71468948     0.42564718
     0.47000000     0.75315102     0.42564718
     0.47000000     0.79161256     0.42564718
     0.47000000     0.83007410     0.42564718
     0.47000000     0.86853564     0.42564718
     0.47000000     0.90699717     0.42564718
     0.47000000     0.94545871     0.42564718
     0.47000000     0.98392025     0.42564718
     0.49000000     0.02238179     0.42564718
     0.49000000     0.06084333     0.42564718
     0.49000000     0.09930487     0.42564718
     0.49000000     0.13776640     0.42564718
     0.49000000     0.17622794     0.42564718
     0.49000000     0.21468948     0.42564718
     0.49000000     0.25315102     0.42564718
     0.49000000     0.29161256     0.42564718
     0.49000000     0.33007410     0.42564718
     0.49000000     0.36853564     0.42564718
     0.49000000     0.40699717     0.42564718
     0.49000000     0.44545871     0.42564718
     0.49000000     0.48392025     0.42564718
     0.49000000     0.52238179     0.42564718
     0.49000000     0.56084333     0.42564718
     0.49000000     0.59930487     0.42564718
     0.49000000     0.63776640     0.42564718
     0.49000000     0.67622794     0.42564718
     0.49000000     0.71468948     0.42564718
     0.49000000     0.75315102     0.42564718
     0.49000000     0.79161256     0.42564718
     0.49000000     0.83007410     0.42564718
     0.49000000     0.86853564     0.42564718