Generated by Twist2D
    1.0
     158.25598248       0.00000000       0.00000000
       0.00000000     119.62313088       0.00000000
       0.00000000       0.00000000      20.00000000
    P
    10372
Direct
     0.01041667     0.02155283     0.42564718
     0.01041667     0.05858987     0.42564718
     0.01041667     0.09562691     0.42564718
     0.01041667     0.13266395     0.42564718
     0.01041667     0.16970098     0.42564718
     0.01041667     0.20673802     0.42564718
     0.01041667     0.24377506     0.42564718
     0.01041667     0.28081209     0.42564718
     0.01041667     0.31784913     0.42564718
     0.01041667     0.35488617     0.42564718
     0.01041667     0.39192320     0.42564718
     0.01041667     0.42896024     0.42564718
     0.01041667     0.46599728     0.42564718
     0.01041667     0.50303432     0.42564718
     0.01041667     0.54007135     0.42564718
     0.01041667     0.57710839     0.42564718
     0.01041667     0.61414543     0.42564718
     0.01041667     0.65118246     0.42564718
     0.01041667     0.68821950     0.42564718
     0.01041667     0.72525654     0.42564718
     0.01041667     0.76229357     0.42564718
     0.01041667     0.79933061     0.42564718
     0.01041667     0.83636765     0.42564718
     0.01041667     0.87340469     0.42564718
     0.01041667     0.91044172     0.42564718
     0.01041667     0.94747876     0.42564718
     0.01041667     0.98451580     0.42564718
     0.03125000     0.02155283     0.42564718
     0.03125000     0.05858987     0.42564718
     0.03125000     0.09562691     0.42564718
     0.03125000     0.13266395     0.42564718
     0.03125000     0.16970098     0.42564718
     0.03125000     0.20673802     0.42564718
     0.03125000     0.24377506     0.42564718
     0.03125000     0.28081209     0.42564718
     0.03125000     0.31784913     0.42564718
     0.03125000     0.35488617     0.42564718
     0.03125000     0.39192320     0.42564718
     0.03125000     0.42896024     0.42564718
     0.03125000     0.46599728     0.42564718
     0.03125000     0.50303432     0.42564718
     0.03125000     0.54007135     0.42564718
     0.03125000     0.57710839     0.42564718
     0.03125000     0.61414543     0.42564718
     0.03125000     0.65118246     0.42564718
     0.03125000     0.68821950     0.42564718
     0.03125000     0.72525654     0.42564718
     0.03125000     0.76229357     0.42564718
     0.03125000     0.79933061     0.42564718
     0.03125000     0.83636765     0.42564718
     0.03125000     0.87340469     0.42564718
     0.03125000     0.91044172     0.42564718
     0.03125000     0.94747876     0.42564718
     0.03125000     0.98451580     0.42564718
     0.05208333     0.02155283     0.42564718
     0.05208333     0.05858987     0.42564718
     0.05208333     0.09562691     0.42564718
     0.05208333     0.13266395     0.42564718
     0.05208333     0.16970098     0.42564718
     0.05208333     0.20673802     0.42564718
     0.05208333     0.24377506     0.42564718
     0.05208333     0.28081209     0.42564718
     0.05208333     0.31784913     0.42564718
     0.05208333     0.35488617     0.42564718
     0.05208333     0.39192320     0.42564718
     0.05208333     0.42896024     0.42564718
     0.05208333     0.46599728     0.42564718
     0.05208333     0.50303432     0.42564718
     0.05208333     0.54007135     0.42564718
     0.05208333     0.57710839     0.42564718
     0.05208333     0.61414543     0.42564718
     0.05208333     0.65118246     0.42564718
     0.05208333     0.68821950     0.42564718
     0.05208333     0.72525654     0.42564718
     0.05208333     0.76229357     0.42564718
     0.05208333     0.79933061     0.42564718
     0.05208333     0.83636765     0.42564718
     0.05208333     0.87340469     0.42564718
     0.05208333     0.91044172     0.42564718
     0.05208333     0.94747876     0.42564718
     0.05208333     0.98451580     0.42564718
     0.07291667     0.02155283     0.42564718
     0.07291667     0.05858987     0.42564718
     0.07291667     0.09562691     0.42564718
     0.07291667     0.13266395     0.42564718
     0.07291667     0.16970098     0.42564718
     0.07291667     0.20673802     0.42564718
     0.07291667     0.24377506     0.42564718
     0.07291667     0.28081209     0.42564718
     0.07291667     0.31784913     0.42564718
     0.07291667     0.35488617     0.42564718
     0.07291667     0.39192320     0.42564718
     0.07291667     0.42896024     0.42564718
     0.07291667     0.46599728     0.42564718
     0.07291667     0.50303432     0.42564718
     0.07291667     0.54007135     0.42564718
     0.07291667     0.57710839     0.42564718
     0.07291667     0.61414543     0.42564718
     0.07291667     0.65118246     0.42564718
     0.07291667     0.68821950     0.42564718
     0.07291667     0.72525654     0.42564718
     0.07291667     0.76229357     0.42564718
     0.07291667     0.79933061     0.42564718
     0.07291667     0.83636765     0.42564718
     0.07291667     0.87340469     0.42564718
     0.07291667     0.91044172     0.42564718
     0.07291667     0.94747876     0.42564718
     0.07291667     0.98451580     0.42564718
     0.09375000     0.02155283     0.42564718
     0.09375000     0.05858987     0.42564718
     0.09375000     0.09562691     0.42564718
     0.09375000     0.13266395     0.42564718
     0.09375000     0.16970098     0.42564718
     0.09375000     0.20673802     0.42564718
     0.09375000     0.24377506     0.42564718
     0.09375000     0.28081209     0.42564718
     0.09375000     0.31784913     0.42564718
     0.09375000     0.35488617     0.42564718
     0.09375000     0.39192320     0.42564718
     0.09375000     0.42896024     0.42564718
     0.09375000     0.46599728     0.42564718
     0.09375000     0.50303432     0.42564718
     0.09375000     0.54007135     0.42564718
     0.09375000     0.57710839     0.42564718
     0.09375000     0.61414543     0.42564718
     0.09375000     0.65118246     0.42564718
     0.09375000     0.68821950     0.42564718
     0.09375000     0.72525654     0.42564718
     0.09375000     0.76229357     0.42564718
     0.09375000     0.79933061     0.42564718
     0.09375000     0.83636765     0.42564718
     0.09375000     0.87340469     0.42564718
     0.09375000     0.91044172     0.42564718
     0.09375000     0.94747876     0.42564718
     0.09375000     0.98451580     0.42564718
     0.11458333     0.02155283     0.42564718
     0.11458333     0.05858987     0.42564718
     0.11458333     0.09562691     0.42564718
     0.11458333     0.13266395     0.42564718
     0.11458333     0.16970098     0.42564718
     0.11458333     0.20673802     0.42564718
     0.11458333     0.24377506     0.42564718
     0.11458333     0.28081209     0.42564718
     0.11458333     0.31784913     0.42564718
     0.11458333     0.35488617     0.42564718
     0.11458333     0.39192320     0.42564718
     0.11458333     0.42896024     0.42564718
     0.11458333     0.46599728     0.42564718
     0.11458333     0.50303432     0.42564718
     0.11458333     0.54007135     0.42564718
     0.11458333     0.57710839     0.42564718
     0.11458333     0.61414543     0.42564718
     0.11458333     0.65118246     0.42564718
     0.11458333     0.68821950     0.42564718
     0.11458333     0.72525654     0.42564718
     0.11458333     0.76229357     0.42564718
     0.11458333     0.79933061     0.42564718
     0.11458333     0.83636765     0.42564718
     0.11458333     0.87340469     0.42564718
     0.11458333     0.91044172     0.42564718
     0.11458333     0.94747876     0.42564718
     0.11458333     0.98451580     0.42564718
     0.13541667     0.02155283     0.42564718
     0.13541667     0.05858987     0.42564718
     0.13541667     0.09562691     0.42564718
     0.13541667     0.13266395     0.42564718
     0.13541667     0.16970098     0.42564718
     0.13541667     0.20673802     0.42564718
     0.13541667     0.24377506     0.42564718
     0.13541667     0.28081209     0.42564718
     0.13541667     0.31784913     0.42564718
     0.13541667     0.35488617     0.42564718
     0.13541667     0.39192320     0.42564718
     0.13541667     0.42896024     0.42564718
     0.13541667     0.46599728     0.42564718
     0.13541667     0.50303432     0.42564718
     0.13541667     0.54007135     0.42564718
     0.13541667     0.57710839     0.42564718
     0.13541667     0.61414543     0.42564718
     0.13541667     0.65118246     0.42564718
     0.13541667     0.68821950     0.42564718
     0.13541667     0.72525654     0.42564718
     0.13541667     0.76229357     0.42564718
     0.13541667     0.79933061     0.42564718
     0.13541667     0.83636765     0.42564718
     0.13541667     0.87340469     0.42564718
     0.13541667     0.91044172     0.42564718
     0.13541667     0.94747876     0.42564718
     0.13541667     0.98451580     0.42564718
     0.15625000     0.02155283     0.42564718
     0.15625000     0.05858987     0.42564718
     0.15625000     0.09562691     0.42564718
     0.15625000     0.13266395     0.42564718
     0.15625000     0.16970098     0.42564718
     0.15625000     0.20673802     0.42564718
     0.15625000     0.24377506     0.42564718
     0.15625000     0.28081209     0.42564718
     0.15625000     0.31784913     0.42564718
     0.15625000     0.35488617     0.42564718
     0.15625000     0.39192320     0.42564718
     0.15625000     0.42896024     0.42564718
     0.15625000     0.46599728     0.42564718
     0.15625000     0.50303432     0.42564718
     0.15625000     0.54007135     0.42564718
     0.15625000     0.57710839     0.42564718
     0.15625000     0.61414543     0.42564718
     0.15625000     0.65118246     0.42564718
     0.15625000     0.68821950     0.42564718
     0.15625000     0.72525654     0.42564718
     0.15625000     0.76229357     0.42564718
     0.15625000     0.79933061     0.42564718
     0.15625000     0.83636765     0.42564718
     0.15625000     0.87340469     0.42564718
     0.15625000     0.91044172     0.42564718
     0.15625000     0.94747876     0.42564718
     0.15625000     0.98451580     0.42564718
     0.17708333     0.02155283     0.42564718
     0.17708333     0.05858987     0.42564718
     0.17708333     0.09562691     0.42564718
     0.17708333     0.13266395     0.42564718
     0.17708333     0.16970098     0.42564718
     0.17708333     0.20673802     0.42564718
     0.17708333     0.24377506     0.42564718
     0.17708333     0.28081209     0.42564718
     0.17708333     0.31784913     0.42564718
     0.17708333     0.35488617     0.42564718
     0.17708333     0.39192320     0.42564718
     0.17708333     0.42896024     0.42564718
     0.17708333     0.46599728     0.42564718
     0.17708333     0.50303432     0.42564718
     0.17708333     0.54007135     0.42564718
     0.17708333     0.57710839     0.42564718
     0.17708333     0.61414543     0.42564718
     0.17708333     0.65118246     0.42564718
     0.17708333     0.68821950     0.42564718
     0.17708333     0.72525654     0.42564718
     0.17708333     0.76229357     0.42564718
     0.17708333     0.79933061     0.42564718
     0.17708333     0.83636765     0.42564718
     0.17708333     0.87340469     0.42564718
     0.17708333     0.91044172     0.42564718
     0.17708333     0.94747876     0.42564718
     0.17708333     0.98451580     0.42564718
     0.19791667     0.02155283     0.42564718
     0.19791667     0.05858987     0.42564718
     0.19791667     0.09562691     0.42564718
     0.19791667     0.13266395     0.42564718
     0.19791667     0.16970098     0.42564718
     0.19791667     0.20673802     0.42564718
     0.19791667     0.24377506     0.42564718
     0.19791667     0.28081209     0.42564718
     0.19791667     0.31784913     0.42564718
     0.19791667     0.35488617     0.42564718
     0.19791667     0.39192320     0.42564718
     0.19791667     0.42896024     0.42564718
     0.19791667     0.46599728     0.42564718
     0.19791667     0.50303432     0.42564718
     0.19791667     0.54007135     0.42564718
     0.19791667     0.57710839     0.42564718
     0.19791667     0.61414543     0.42564718
     0.19791667     0.65118246     0.42564718
     0.19791667     0.68821950     0.42564718
     0.19791667     0.72525654     0.42564718
     0.19791667     0.76229357     0.42564718
     0.19791667     0.79933061     0.42564718
     0.19791667     0.83636765     0.42564718
     0.19791667     0.87340469     0.42564718
     0.19791667     0.91044172     0.42564718
     0.19791667     0.94747876     0.42564718
     0.19791667     0.98451580     0.42564718
     0.21875000     0.02155283     0.42564718
     0.21875000     0.05858987     0.42564718
     0.21875000     0.09562691     0.42564718
     0.21875000     0.13266395     0.42564718
     0.21875000     0.16970098     0.42564718
     0.21875000     0.20673802     0.42564718
     0.21875000     0.24377506     0.42564718
     0.21875000     0.28081209     0.42564718
     0.21875000     0.31784913     0.42564718
     0.21875000     0.35488617     0.42564718
     0.21875000     0.39192320     0.42564718
     0.21875000     0.42896024     0.42564718
     0.21875000     0.46599728     0.42564718
     0.21875000     0.50303432     0.42564718
     0.21875000     0.54007135     0.42564718
     0.21875000     0.57710839     0.42564718
     0.21875000     0.61414543     0.42564718
     0.21875000     0.65118246     0.42564718
     0.21875000     0.68821950     0.42564718
     0.21875000     0.72525654     0.42564718
     0.21875000     0.76229357     0.42564718
     0.21875000     0.79933061     0.42564718
     0.21875000     0.83636765     0.42564718
     0.21875000     0.87340469     0.42564718
     0.21875000     0.91044172     0.42564718
     0.21875000     0.94747876     0.42564718
     0.21875000     0.98451580     0.42564718
     0.23958333     0.02155283     0.42564718
     0.23958333     0.05858987     0.42564718
     0.23958333     0.09562691     0.42564718
     0.23958333     0.13266395     0.42564718
     0.23958333     0.16970098     0.42564718
     0.23958333     0.20673802     0.42564718
     0.23958333     0.24377506     0.42564718
     0.23958333     0.28081209     0.42564718
     0.23958333     0.31784913     0.42564718
     0.23958333     0.35488617     0.42564718
     0.23958333     0.39192320     0.42564718
     0.23958333     0.42896024     0.42564718
     0.23958333     0.46599728     0.42564718
     0.23958333     0.50303432     0.42564718
     0.23958333     0.54007135     0.42564718
     0.23958333     0.57710839     0.42564718
     0.23958333     0.61414543     0.42564718
     0.23958333     0.65118246     0.42564718
     0.23958333     0.68821950     0.42564718
     0.23958333     0.72525654     0.42564718
     0.23958333     0.76229357     0.42564718
     0.23958333     0.79933061     0.42564718
     0.23958333     0.83636765     0.42564718
     0.23958333     0.87340469     0.42564718
     0.23958333     0.91044172     0.42564718
     0.23958333     0.94747876     0.42564718
     0.23958333     0.98451580     0.42564718
     0.26041667     0.02155283     0.42564718
     0.26041667     0.05858987     0.42564718
     0.26041667     0.09562691     0.42564718
     0.26041667     0.13266395     0.42564718
     0.26041667     0.16970098     0.42564718
     0.26041667     0.20673802     0.42564718
     0.26041667     0.24377506     0.42564718
     0.26041667     0.28081209     0.42564718
     0.26041667     0.31784913     0.42564718
     0.26041667     0.35488617     0.42564718
     0.26041667     0.39192320     0.42564718
     0.26041667     0.42896024     0.42564718
     0.26041667     0.46599728     0.42564718
     0.26041667     0.50303432     0.42564718
     0.26041667     0.54007135     0.42564718
     0.26041667     0.57710839     0.42564718
     0.26041667     0.61414543     0.42564718
     0.26041667     0.65118246     0.42564718
     0.26041667     0.68821950     0.42564718
     0.26041667     0.72525654     0.42564718
     0.26041667     0.76229357     0.42564718
     0.26041667     0.79933061     0.42564718
     0.26041667     0.83636765     0.42564718
     0.26041667     0.87340469     0.42564718
     0.26041667     0.91044172     0.42564718
     0.26041667     0.94747876     0.42564718
     0.26041667     0.98451580     0.42564718
     0.28125000     0.02155283     0.42564718
     0.28125000     0.05858987     0.42564718
     0.28125000     0.09562691     0.42564718
     0.28125000     0.13266395     0.42564718
     0.28125000     0.16970098     0.42564718
     0.28125000     0.20673802     0.42564718
     0.28125000     0.24377506     0.42564718
     0.28125000     0.28081209     0.42564718
     0.28125000     0.31784913     0.42564718
     0.28125000     0.35488617     0.42564718
     0.28125000     0.39192320     0.42564718
     0.28125000     0.42896024     0.42564718
     0.28125000     0.46599728     0.42564718
     0.28125000     0.50303432     0.42564718
     0.28125000     0.54007135     0.42564718
     0.28125000     0.57710839     0.42564718
     0.28125000     0.61414543     0.42564718
     0.28125000     0.65118246     0.42564718
     0.28125000     0.68821950     0.42564718
     0.28125000     0.72525654     0.42564718
     0.28125000     0.76229357     0.42564718
     0.28125000     0.79933061     0.42564718
     0.28125000     0.83636765     0.42564718
     0.28125000     0.87340469     0.42564718
     0.28125000     0.91044172     0.42564718
     0.28125000     0.94747876     0.42564718
     0.28125000     0.98451580     0.42564718
     0.30208333     0.02155283     0.42564718
     0.30208333     0.05858987     0.42564718
     0.30208333     0.09562691     0.42564718
     0.30208333     0.13266395     0.42564718
     0.30208333     0.16970098     0.42564718
     0.30208333     0.20673802     0.42564718
     0.30208333     0.24377506     0.42564718
     0.30208333     0.28081209     0.42564718
     0.30208333     0.31784913     0.42564718
     0.30208333     0.35488617     0.42564718
     0.30208333     0.39192320     0.42564718
     0.30208333     0.42896024     0.42564718
     0.30208333     0.46599728     0.42564718
     0.30208333     0.50303432     0.42564718
     0.30208333     0.54007135     0.42564718
     0.30208333     0.57710839     0.42564718
     0.30208333     0.61414543     0.42564718
     0.30208333     0.65118246     0.42564718
     0.30208333     0.68821950     0.42564718
     0.30208333     0.72525654     0.42564718
     0.30208333     0.76229357     0.42564718
     0.30208333     0.79933061     0.42564718
     0.30208333     0.83636765     0.42564718
     0.30208333     0.87340469     0.42564718
     0.30208333     0.91044172     0.42564718
     0.30208333     0.94747876     0.42564718
     0.30208333     0.98451580     0.42564718
     0.32291667     0.02155283     0.42564718
     0.32291667     0.05858987     0.42564718
     0.32291667     0.09562691     0.42564718
     0.32291667     0.13266395     0.42564718
     0.32291667     0.16970098     0.42564718
     0.32291667     0.20673802     0.42564718
     0.32291667     0.24377506     0.42564718
     0.32291667     0.28081209     0.42564718
     0.32291667     0.31784913     0.42564718
     0.32291667     0.35488617     0.42564718
     0.32291667     0.39192320     0.42564718
     0.32291667     0.42896024     0.42564718
     0.32291667     0.46599728     0.42564718
     0.32291667     0.50303432     0.42564718
     0.32291667     0.54007135     0.42564718
     0.32291667     0.57710839     0.42564718
     0.32291667     0.61414543     0.42564718
     0.32291667     0.65118246     0.42564718
     0.32291667     0.68821950     0.42564718
     0.32291667     0.72525654     0.42564718
     0.32291667     0.76229357     0.42564718
     0.32291667     0.79933061     0.42564718
     0.32291667     0.83636765     0.42564718
     0.32291667     0.87340469     0.42564718
     0.32291667     0.91044172     0.42564718
     0.32291667     0.94747876     0.42564718
     0.32291667     0.98451580     0.42564718
     0.34375000     0.02155283     0.42564718
     0.34375000     0.05858987     0.42564718
     0.34375000     0.09562691     0.42564718
     0.34375000     0.13266395     0.42564718
     0.34375000     0.16970098     0.42564718
     0.34375000     0.20673802     0.42564718
     0.34375000     0.24377506     0.42564718
     0.34375000     0.28081209     0.42564718
     0.34375000     0.31784913     0.42564718
     0.34375000     0.35488617     0.42564718
     0.34375000     0.39192320     0.42564718
     0.34375000     0.42896024     0.42564718
     0.34375000     0.46599728     0.42564718
     0.34375000     0.50303432     0.42564718
     0.34375000     0.54007135     0.42564718
     0.34375000     0.57710839     0.42564718
     0.34375000     0.61414543     0.42564718
     0.34375000     0.65118246     0.42564718
     0.34375000     0.68821950     0.42564718
     0.34375000     0.72525654     0.42564718
     0.34375000     0.76229357     0.42564718
     0.34375000     0.79933061     0.42564718
     0.34375000     0.83636765     0.42564718
     0.34375000     0.87340469     0.42564718
     0.34375000     0.91044172     0.42564718
     0.34375000     0.94747876     0.42564718
     0.34375000     0.98451580     0.42564718
     0.36458333     0.02155283     0.42564718
     0.36458333     0.05858987     0.42564718
     0.36458333     0.09562691     0.42564718
     0.36458333     0.13266395     0.42564718
     0.36458333     0.16970098     0.42564718
     0.36458333     0.20673802     0.42564718
     0.36458333     0.24377506     0.42564718
     0.36458333     0.28081209     0.42564718
     0.36458333     0.31784913     0.42564718
     0.36458333     0.35488617     0.42564718
     0.36458333     0.39192320     0.42564718
     0.36458333     0.42896024     0.42564718
     0.36458333     0.46599728     0.42564718
     0.36458333     0.50303432     0.42564718
     0.36458333     0.54007135     0.42564718
     0.36458333     0.57710839     0.42564718
     0.36458333     0.61414543     0.42564718
     0.36458333     0.65118246     0.42564718
     0.36458333     0.68821950     0.42564718
     0.36458333     0.72525654     0.42564718
     0.36458333     0.76229357     0.42564718
     0.36458333     0.79933061     0.42564718
     0.36458333     0.83636765     0.42564718
     0.36458333     0.87340469     0.42564718
     0.36458333     0.91044172     0.42564718
     0.36458333     0.94747876     0.42564718
     0.36458333     0.98451580     0.42564718
     0.38541667     0.02155283     0.42564718
     0.38541667     0.05858987     0.42564718
     0.38541667     0.09562691     0.42564718
     0.38541667     0.13266395     0.42564718
     0.38541667     0.16970098     0.42564718
     0.38541667     0.20673802     0.42564718
     0.38541667     0.24377506     0.42564718
     0.38541667     0.28081209     0.42564718
     0.38541667     0.31784913     0.42564718
     0.38541667     0.35488617     0.42564718
     0.38541667     0.39192320     0.42564718
     0.38541667     0.42896024     0.42564718
     0.38541667     0.46599728     0.42564718
     0.38541667     0.50303432     0.42564718
     0.38541667     0.54007135     0.42564718
     0.38541667     0.57710839     0.42564718
     0.38541667     0.61414543     0.42564718
     0.38541667     0.65118246     0.42564718
     0.38541667     0.68821950     0.42564718
     0.38541667     0.72525654     0.42564718
     0.38541667     0.76229357     0.42564718
     0.38541667     0.79933061     0.42564718
     0.38541667     0.83636765     0.42564718
     0.38541667     0.87340469     0.42564718
     0.38541667     0.91044172     0.42564718
     0.38541667     0.94747876     0.42564718
     0.38541667     0.98451580     0.42564718
     0.40625000     0.02155283     0.42564718
     0.40625000     0.05858987     0.42564718
     0.40625000     0.09562691     0.42564718
     0.40625000     0.13266395     0.42564718
     0.40625000     0.16970098     0.42564718
     0.40625000     0.20673802     0.42564718
     0.40625000     0.24377506     0.42564718
     0.40625000     0.28081209     0.42564718
     0.40625000     0.31784913     0.42564718
     0.40625000     0.35488617     0.42564718
     0.40625000     0.39192320     0.42564718
     0.40625000     0.42896024     0.42564718
     0.40625000     0.46599728     0.42564718
     0.40625000     0.50303432     0.42564718
     0.40625000     0.54007135     0.42564718
     0.40625000     0.57710839     0.42564718
     0.40625000     0.61414543     0.42564718
     0.40625000     0.65118246     0.42564718
     0.40625000     0.68821950     0.42564718
     0.40625000     0.72525654     0.42564718
     0.40625000     0.76229357     0.42564718
     0.40625000     0.79933061     0.42564718
     0.40625000     0.83636765     0.42564718
     0.40625000     0.87340469     0.42564718
     0.40625000     0.91044172     0.42564718
     0.40625000     0.94747876     0.42564718
     0.40625000     0.98451580     0.42564718
     0.42708333     0.02155283     0.42564718
     0.42708333     0.05858987     0.42564718
     0.42708333     0.09562691     0.42564718
     0.42708333     0.13266395     0.42564718
     0.42708333     0.16970098     0.42564718
     0.42708333     0.20673802     0.42564718
     0.42708333     0.24377506     0.42564718
     0.42708333     0.28081209     0.42564718
     0.42708333     0.31784913     0.42564718
     0.42708333     0.35488617     0.42564718
     0.42708333     0.39192320     0.42564718
     0.42708333     0.42896024     0.42564718
     0.42708333     0.46599728     0.42564718
     0.42708333     0.50303432     0.42564718
     0.42708333     0.54007135     0.42564718
     0.42708333     0.57710839     0.42564718
     0.42708333     0.61414543     0.42564718
     0.42708333     0.65118246     0.42564718
     0.42708333     0.68821950     0.42564718
     0.42708333     0.72525654     0.42564718
     0.42708333     0.76229357     0.42564718
     0.42708333     0.79933061     0.42564718
     0.42708333     0.83636765     0.42564718
     0.42708333     0.87340469     0.42564718
     0.42708333     0.91044172     0.42564718
     0.42708333     0.94747876     0.42564718
     0.42708333     0.98451580     0.42564718
     0.44791667     0.02155283     0.42564718
     0.44791667     0.05858987     0.42564718
     0.44791667     0.09562691     0.42564718
     0.44791667     0.13266395     0.42564718
     0.44791667     0.16970098     0.42564718
     0.44791667     0.20673802     0.42564718
     0.44791667     0.24377506     0.42564718
     0.44791667     0.28081209     0.42564718
     0.44791667     0.31784913     0.42564718
     0.44791667     0.35488617     0.42564718
     0.44791667     0.39192320     0.42564718
     0.44791667     0.42896024     0.42564718
     0.44791667     0.46599728     0.42564718
     0.44791667     0.50303432     0.42564718
     0.44791667     0.54007135     0.42564718
     0.44791667     0.57710839     0.42564718
     0.44791667     0.61414543     0.42564718
     0.44791667     0.65118246     0.42564718
     0.44791667     0.68821950     0.42564718
     0.44791667     0.72525654     0.42564718
     0.44791667     0.76229357     0.42564718
     0.44791667     0.79933061     0.42564718
     0.44791667     0.83636765     0.42564718
     0.44791667     0.87340469     0.42564718
     0.44791667     0.91044172     0.42564718
     0.44791667     0.94747876     0.42564718
     0.44791667     0.98451580     0.42564718
     0.46875000     0.02155283     0.42564718
     0.46875000     0.05858987     0.42564718
     0.46875000     0.09562691     0.42564718
     0.46875000     0.13266395     0.42564718
     0.46875000     0.16970098     0.42564718
     0.46875000     0.20673802     0.42564718
     0.46875000     0.24377506     0.42564718
     0.46875000     0.28081209     0.42564718
     0.46875000     0.31784913     0.42564718
     0.46875000     0.35488617     0.42564718
     0.46875000     0.39192320     0.42564718
     0.46875000     0.42896024     0.42564718
     0.46875000     0.46599728     0.42564718
     0.46875000     0.50303432     0.42564718
     0.46875000     0.54007135     0.42564718
     0.46875000     0.57710839     0.42564718
     0.46875000     0.61414543     0.42564718
     0.46875000     0.65118246     0.42564718
     0.46875000     0.68821950     0.42564718
     0.46875000     0.72525654     0.42564718
     0.46875000     0.76229357     0.42564718
     0.46875000     0.79933061     0.42564718
     0.46875000     0.83636765     0.42564718
     0.46875000     0.87340469     0.42564718
     0.46875000     0.91044172     0.42564718
     0.46875000     0.94747876     0.42564718
     0.46875000     0.98451580     0.42564718
     0.48958333     0.02155283     0.42564718
     0.48958333     0.05858987     0.42564718
     0.48958333     0.09562691     0.42564718
     0.48958333     0.13266395     0.42564718
     0.48958333     0.16970098     0.42564718
     0.48958333     0.20673802     0.42564718
     0.48958333     0.24377506     0.42564718
     0.48958333     0.28081209     0.42564718
     0.48958333     0.31784913     0.42564718
     0.48958333     0.35488617     0.42564718
     0.48958333     0.39192320     0.42564718
     0.48958333     0.42896024     0.42564718
     0.48958333     0.46599728     0.42564718
     0.48958333     0.50303432     0.42564718
     0.48958333     0.54007135     0.42564718
     0.48958333     0.57710839     0.42564718
     0.48958333     0.61414543     0.42564718
     0.48958333     0.65118246     0.42564718
     0.48958333     0.68821950     0.42564718
     0.48958333     0.72525654     0.42564718
     0.48958333     0.76229357     0.42564718
     0.48958333     0.79933061     0.42564718
     0.48958333     0.83636765     0.42564718
     0.48958333     0.87340469     0.42564718
     0.48958333     0.91044172     0.42564718
     0.48958333     0.94747876     0.42564718