Generated by Twist2D
    1.0
     118.69198686       0.00000000       0.00000000
       0.00000000      84.17924025       0.00000000
       0.00000000       0.00000000      20.00000000
    P
    5476
Direct
     0.01388889     0.03062771     0.42564718
     0.01388889     0.08325929     0.42564718
     0.01388889     0.13589087     0.42564718
     0.01388889     0.18852245     0.42564718
     0.01388889     0.24115403     0.42564718
     0.01388889     0.29378561     0.42564718
     0.01388889     0.34641719     0.42564718
     0.01388889     0.39904876     0.42564718
     0.01388889     0.45168034     0.42564718
     0.01388889     0.50431192     0.42564718
     0.01388889     0.55694350     0.42564718
     0.01388889     0.60957508     0.42564718
     0.01388889     0.66220666     0.42564718
     0.01388889     0.71483824     0.42564718
     0.01388889     0.76746982     0.42564718
     0.01388889     0.82010140     0.42564718
     0.01388889     0.87273297     0.42564718
     0.01388889     0.92536455     0.42564718
     0.01388889     0.97799613     0.42564718
     0.04166667     0.03062771     0.42564718
     0.04166667     0.08325929     0.42564718
     0.04166667     0.13589087     0.42564718
     0.04166667     0.18852245     0.42564718
     0.04166667     0.24115403     0.42564718
     0.04166667     0.29378561     0.42564718
     0.04166667     0.34641719     0.42564718
     0.04166667     0.39904876     0.42564718
     0.04166667     0.45168034     0.42564718
     0.04166667     0.50431192     0.42564718
     0.04166667     0.55694350     0.42564718
     0.04166667     0.60957508     0.42564718
     0.04166667     0.66220666     0.42564718
     0.04166667     0.71483824     0.42564718
     0.04166667     0.76746982     0.42564718
     0.04166667     0.82010140     0.42564718
     0.04166667     0.87273297     0.42564718
     0.04166667     0.92536455     0.42564718
     0.04166667     0.97799613     0.42564718
     0.06944444     0.03062771     0.42564718
     0.06944444     0.08325929     0.42564718
     0.06944444     0.13589087     0.42564718
     0.06944444     0.18852245     0.42564718
     0.06944444     0.24115403     0.42564718
     0.06944444     0.29378561     0.42564718
     0.06944444     0.34641719     0.42564718
     0.06944444     0.39904876     0.42564718
     0.06944444     0.45168034     0.42564718
     0.06944444     0.50431192     0.42564718
     0.06944444     0.55694350     0.42564718
     0.06944444     0.60957508     0.42564718
     0.06944444     0.66220666     0.42564718
     0.06944444     0.71483824     0.42564718
     0.06944444     0.76746982     0.42564718
     0.06944444     0.82010140     0.42564718
     0.06944444     0.87273297     0.42564718
     0.06944444     0.92536455     0.42564718
     0.06944444     0.97799613     0.42564718
     0.09722222     0.03062771     0.42564718
     0.09722222     0.08325929     0.42564718
     0.09722222     0.13589087     0.42564718
     0.09722222     0.18852245     0.42564718
     0.09722222     0.24115403     0.42564718
     0.09722222     0.29378561     0.42564718
     0.09722222     0.34641719     0.42564718
     0.09722222     0.39904876     0.42564718
     0.09722222     0.45168034     0.42564718
     0.09722222     0.50431192     0.42564718
     0.09722222     0.55694350     0.42564718
     0.09722222     0.60957508     0.42564718
     0.09722222     0.66220666     0.42564718
     0.09722222     0.71483824     0.42564718
     0.09722222     0.76746982     0.42564718
     0.09722222     0.82010140     0.42564718
     0.09722222     0.87273297     0.42564718
     0.09722222     0.92536455     0.42564718
     0.09722222     0.97799613     0.42564718
     0.12500000     0.03062771     0.42564718
     0.12500000     0.08325929     0.42564718
     0.12500000     0.13589087     0.42564718
     0.12500000     0.18852245     0.42564718
     0.12500000     0.24115403     0.42564718
     0.12500000     0.29378561     0.42564718
     0.12500000     0.34641719     0.42564718
     0.12500000     0.39904876     0.42564718
     0.12500000     0.45168034     0.42564718
     0.12500000     0.50431192     0.42564718
     0.12500000     0.55694350     0.42564718
     0.12500000     0.60957508     0.42564718
     0.12500000     0.66220666     0.42564718
     0.12500000     0.71483824     0.42564718
     0.12500000     0.76746982     0.42564718
     0.12500000     0.82010140     0.42564718
     0.12500000     0.87273297     0.42564718
     0.12500000     0.92536455     0.42564718
     0.12500000     0.97799613     0.42564718
     0.15277778     0.03062771     0.42564718
     0.15277778     0.08325929     0.42564718
     0.15277778     0.13589087     0.42564718
     0.15277778     0.18852245     0.42564718
     0.15277778     0.24115403     0.42564718
     0.15277778     0.29378561     0.42564718
     0.15277778     0.34641719     0.42564718
     0.15277778     0.39904876     0.42564718
     0.15277778     0.45168034     0.42564718
     0.15277778     0.50431192     0.42564718
     0.15277778     0.55694350     0.42564718
     0.15277778     0.60957508     0.42564718
     0.15277778     0.66220666     0.42564718
     0.15277778     0.71483824     0.42564718
     0.15277778     0.76746982     0.42564718
     0.15277778     0.82010140     0.42564718
     0.15277778     0.87273297     0.42564718
     0.15277778     0.92536455     0.42564718
     0.15277778     0.97799613     0.42564718
     0.18055556     0.03062771     0.42564718
     0.18055556     0.08325929     0.42564718
     0.18055556     0.13589087     0.42564718
     0.18055556     0.18852245     0.42564718
     0.18055556     0.24115403     0.42564718
     0.18055556     0.29378561     0.42564718
     0.18055556     0.34641719     0.42564718
     0.18055556     0.39904876     0.42564718
     0.18055556     0.45168034     0.42564718
     0.18055556     0.50431192     0.42564718
     0.18055556     0.55694350     0.42564718
     0.18055556     0.60957508     0.42564718
     0.18055556     0.66220666     0.42564718
     0.18055556     0.71483824     0.42564718
     0.18055556     0.76746982     0.42564718
     0.18055556     0.82010140     0.42564718
     0.18055556     0.87273297     0.42564718
     0.18055556     0.92536455     0.42564718
     0.18055556     0.97799613     0.42564718
     0.20833333     0.03062771     0.42564718
     0.20833333     0.08325929     0.42564718
     0.20833333     0.13589087     0.42564718
     0.20833333     0.18852245     0.42564718
     0.20833333     0.24115403     0.42564718
     0.20833333     0.29378561     0.42564718
     0.20833333     0.34641719     0.42564718
     0.20833333     0.39904876     0.42564718
     0.20833333     0.45168034     0.42564718
     0.20833333     0.50431192     0.42564718
     0.20833333     0.55694350     0.42564718
     0.20833333     0.60957508     0.42564718
     0.20833333     0.66220666     0.42564718
     0.20833333     0.71483824     0.42564718
     0.20833333     0.76746982     0.42564718
     0.20833333     0.82010140     0.42564718
     0.20833333     0.87273297     0.42564718
     0.20833333     0.92536455     0.42564718
     0.20833333     0.97799613     0.42564718
     0.23611111     0.03062771     0.42564718
     0.23611111     0.08325929     0.42564718
     0.23611111     0.13589087     0.42564718
     0.23611111     0.18852245     0.42564718
     0.23611111     0.24115403     0.42564718
     0.23611111     0.29378561     0.42564718
     0.23611111     0.34641719     0.42564718
     0.23611111     0.39904876     0.42564718
     0.23611111     0.45168034     0.42564718
     0.23611111     0.50431192     0.42564718
     0.23611111     0.55694350     0.42564718
     0.23611111     0.60957508     0.42564718
     0.23611111     0.66220666     0.42564718
     0.23611111     0.71483824     0.42564718
     0.23611111     0.76746982     0.42564718
     0.23611111     0.82010140     0.42564718
     0.23611111     0.87273297     0.42564718
     0.23611111     0.92536455     0.42564718
     0.23611111     0.97799613     0.42564718
     0.26388889     0.03062771     0.42564718
     0.26388889     0.08325929     0.42564718
     0.26388889     0.13589087     0.42564718
     0.26388889     0.18852245     0.42564718
     0.26388889     0.24115403     0.42564718
     0.26388889     0.29378561     0.42564718
     0.26388889     0.34641719     0.42564718
     0.26388889     0.39904876     0.42564718
     0.26388889     0.45168034     0.42564718
     0.26388889     0.50431192     0.42564718
     0.26388889     0.55694350     0.42564718
     0.26388889     0.60957508     0.42564718
     0.26388889     0.66220666     0.42564718
     0.26388889     0.71483824     0.42564718
     0.26388889     0.76746982     0.42564718
     0.26388889     0.82010140     0.42564718
     0.26388889     0.87273297     0.42564718
     0.26388889     0.92536455     0.42564718
     0.26388889     0.97799613     0.42564718
     0.29166667     0.03062771     0.42564718
     0.29166667     0.08325929     0.42564718
     0.29166667     0.13589087     0.42564718
     0.29166667     0.18852245     0.42564718
     0.29166667     0.24115403     0.42564718
     0.29166667     0.29378561     0.42564718
     0.29166667     0.34641719     0.42564718
     0.29166667     0.39904876     0.42564718
     0.29166667     0.45168034     0.42564718
     0.29166667     0.50431192     0.42564718
     0.29166667     0.55694350     0.42564718
     0.29166667     0.60957508     0.42564718
     0.29166667     0.66220666     0.42564718
     0.29166667     0.71483824     0.42564718
     0.29166667     0.76746982     0.42564718
     0.29166667     0.82010140     0.42564718
     0.29166667     0.87273297     0.42564718
     0.29166667     0.92536455     0.42564718
     0.29166667     0.97799613     0.42564718
     0.31944444     0.03062771     0.42564718
     0.31944444     0.08325929     0.42564718
     0.31944444     0.13589087     0.42564718
     0.31944444     0.18852245     0.42564718
     0.31944444     0.24115403     0.42564718
     0.31944444     0.29378561     0.42564718
     0.31944444     0.34641719     0.42564718
     0.31944444     0.39904876     0.42564718
     0.31944444     0.45168034     0.42564718
     0.31944444     0.50431192     0.42564718
     0.31944444     0.55694350     0.42564718
     0.31944444     0.60957508     0.42564718
     0.31944444     0.66220666     0.42564718
     0.31944444     0.71483824     0.42564718
     0.31944444     0.76746982     0.42564718
     0.31944444     0.82010140     0.42564718
     0.31944444     0.87273297     0.42564718
     0.31944444     0.92536455     0.42564718
     0.31944444     0.97799613     0.42564718
     0.34722222     0.03062771     0.42564718
     0.34722222     0.08325929     0.42564718
     0.34722222     0.13589087     0.42564718
     0.34722222     0.18852245     0.42564718
     0.34722222     0.24115403     0.42564718
     0.34722222     0.29378561     0.42564718
     0.34722222     0.34641719     0.42564718
     0.34722222     0.39904876     0.42564718
     0.34722222     0.45168034     0.42564718
     0.34722222     0.50431192     0.42564718
     0.34722222     0.55694350     0.42564718
     0.34722222     0.60957508     0.42564718
     0.34722222     0.66220666     0.42564718
     0.34722222     0.71483824     0.42564718
     0.34722222     0.76746982     0.42564718
     0.34722222     0.82010140     0.42564718
     0.34722222     0.87273297     0.42564718
     0.34722222     0.92536455     0.42564718
     0.34722222     0.97799613     0.42564718
     0.37500000     0.03062771     0.42564718
     0.37500000     0.08325929     0.42564718
     0.37500000     0.13589087     0.42564718
     0.37500000     0.18852245     0.42564718
     0.37500000     0.24115403     0.42564718
     0.37500000     0.29378561     0.42564718
     0.37500000     0.34641719     0.42564718
     0.37500000     0.39904876     0.42564718
     0.37500000     0.45168034     0.42564718
     0.37500000     0.50431192     0.42564718
     0.37500000     0.55694350     0.42564718
     0.37500000     0.60957508     0.42564718
     0.37500000     0.66220666     0.42564718
     0.37500000     0.71483824     0.42564718
     0.37500000     0.76746982     0.42564718
     0.37500000     0.82010140     0.42564718
     0.37500000     0.87273297     0.42564718
     0.37500000     0.92536455     0.42564718
     0.37500000     0.97799613     0.42564718
     0.40277778     0.03062771     0.42564718
     0.40277778     0.08325929     0.42564718
     0.40277778     0.13589087     0.42564718
     0.40277778     0.18852245     0.42564718
     0.40277778     0.24115403     0.42564718
     0.40277778     0.29378561     0.42564718
     0.40277778     0.34641719     0.42564718
     0.40277778     0.39904876     0.42564718
     0.40277778     0.45168034     0.42564718
     0.40277778     0.50431192     0.42564718
     0.40277778     0.55694350     0.42564718
     0.40277778     0.60957508     0.42564718
     0.40277778     0.66220666     0.42564718
     0.40277778     0.71483824     0.42564718
     0.40277778     0.76746982     0.42564718
     0.40277778     0.82010140     0.42564718
     0.40277778     0.87273297     0.42564718
     0.40277778     0.92536455     0.42564718
     0.40277778     0.97799613     0.42564718
     0.43055556     0.03062771     0.42564718
     0.43055556     0.08325929     0.42564718
     0.43055556     0.13589087     0.42564718
     0.43055556     0.18852245     0.42564718
     0.43055556     0.24115403     0.42564718
     0.43055556     0.29378561     0.42564718
     0.43055556     0.34641719     0.42564718
     0.43055556     0.39904876     0.42564718
     0.43055556     0.45168034     0.42564718
     0.43055556     0.50431192     0.42564718
     0.43055556     0.55694350     0.42564718
     0.43055556     0.60957508     0.42564718
     0.43055556     0.66220666     0.42564718
     0.43055556     0.71483824     0.42564718
     0.43055556     0.76746982     0.42564718
     0.43055556     0.82010140     0.42564718
     0.43055556     0.87273297     0.42564718
     0.43055556     0.92536455     0.42564718
     0.43055556     0.97799613     0.42564718
     0.45833333     0.03062771     0.42564718
     0.45833333     0.08325929     0.42564718
     0.45833333     0.13589087     0.42564718
     0.45833333     0.18852245     0.42564718
     0.45833333     0.24115403     0.42564718
     0.45833333     0.29378561     0.42564718
     0.45833333     0.34641719     0.42564718
     0.45833333     0.39904876     0.42564718
     0.45833333     0.45168034     0.42564718
     0.45833333     0.50431192     0.42564718
     0.45833333     0.55694350     0.42564718
     0.45833333     0.60957508     0.42564718
     0.45833333     0.66220666     0.42564718
     0.45833333     0.71483824     0.42564718
     0.45833333     0.76746982     0.42564718
     0.45833333     0.82010140     0.42564718
     0.45833333     0.87273297     0.42564718
     0.45833333     0.92536455     0.42564718
     0.45833333     0.97799613     0.42564718
     0.48611111     0.03062771     0.42564718
     0.48611111     0.08325929     0.42564718
     0.48611111     0.13589087     0.42564718
     0.48611111     0.18852245     0.42564718
     0.48611111     0.24115403     0.42564718
     0.48611111     0.29378561     0.42564718
     0.48611111     0.34641719     0.42564718
     0.48611111     0.39904876     0.42564718
     0.48611111     0.45168034     0.42564718
     0.48611111     0.50431192     0.42564718
     0.48611111     0.55694350     0.42564718
     0.48611111     0.60957508     0.42564718
     0.48611111     0.66220666     0.42564718
     0.48611111     0.71483824     0.42564718
     0.48611111     0.76746982     0.42564718
     0.48611111     0.82010140     0.42564718
     0.48611111     0.87273297     0.42564718
     0.48611111     0.92536455     0.42564718
     0.48611111     0.97799613     0.42564718
     0.51388889     0.03062771     0.42564718
     0.51388889     0.08325929     0.42564718
     0.51388889     0.13589087     0.42564718
     0.51388889     0.18852245     0.42564718
     0.51388889     0.24115403     0.42564718
     0.51388889     0.29378561     0.42564718
     0.51388889     0.34641719     0.42564718
     0.51388889     0.39904876     0.42564718
     0.51388889     0.45168034     0.42564718
     0.51388889     0.50431192     0.42564718
     0.51388889     0.55694350     0.42564718
     0.51388889     0.60957508     0.42564718
     0.51388889     0.66220666     0.42564718
     0.51388889     0.71483824     0.42564718
     0.51388889     0.76746982     0.42564718
     0.51388889     0.82010140     0.42564718
     0.51388889     0.87273297     0.42564718
     0.51388889     0.92536455     0.42564718
     0.51388889     0.97799613     0.42564718
     0.54166667     0.03062771     0.42564718
     0.54166667     0.08325929     0.42564718
     0.54166667     0.13589087     0.42564718
     0.54166667     0.18852245     0.42564718
     0.54166667     0.24115403     0.42564718
     0.54166667     0.29378561     0.42564718
     0.54166667     0.34641719     0.42564718
     0.54166667     0.39904876     0.42564718
     0.54166667     0.45168034     0.42564718
     0.54166667     0.50431192     0.42564718
     0.54166667     0.55694350     0.42564718
     0.54166667     0.60957508     0.42564718
     0.54166667     0.66220666     0.42564718
     0.54166667     0.71483824     0.42564718
     0.54166667     0.76746982     0.42564718
     0.54166667     0.82010140     0.42564718
     0.54166667     0.87273297     0.42564718
     0.54166667     0.92536455     0.42564718
     0.54166667     0.97799613     0.42564718
     0.56944444     0.03062771     0.42564718
     0.56944444     0.08325929     0.42564718
     0.56944444     0.13589087     0.42564718
     0.56944444     0.18852245     0.42564718
     0.56944444     0.24115403     0.42564718
     0.56944444     0.29378561     0.42564718
     0.56944444     0.34641719     0.42564718
     0.56944444     0.39904876     0.42564718
     0.56944444     0.45168034     0.42564718
     0.56944444     0.50431192     0.42564718
     0.56944444     0.55694350     0.42564718
     0.56944444     0.60957508     0.42564718
     0.56944444     0.66220666     0.42564718
     0.56944444     0.71483824     0.42564718
     0.56944444     0.76746982     0.42564718
     0.56944444     0.82010140     0.42564718
     0.56944444     0.87273297     0.42564718
     0.56944444     0.92536455     0.42564718
     0.56944444     0.97799613     0.42564718
     0.59722222     0.03062771     0.42564718
     0.59722222     0.08325929     0.42564718
     0.59722222     0.13589087     0.42564718
     0.59722222     0.18852245     0.42564718
     0.59722222     0.24115403     0.42564718
     0.59722222     0.29378561     0.42564718
     0.59722222     0.34641719     0.42564718
     0.59722222     0.39904876     0.42564718
     0.59722222     0.45168034     0.42564718
     0.59722222     0.50431192     0.42564718
     0.59722222     0.55694350     0.42564718
     0.59722222     0.60957508     0.42564718
     0.59722222     0.66220666     0.42564718
     0.59722222     0.71483824     0.42564718
     0.59722222     0.76746982     0.42564718
     0.59722222     0.82010140     0.42564718
     0.59722222     0.87273297     0.42564718
     0.59722222     0.92536455     0.42564718
     0.59722222     0.97799613     0.42564718
     0.62500000     0.03062771     0.42564718
     0.62500000     0.08325929     0.42564718
     0.62500000     0.13589087     0.42564718
     0.62500000     0.18852245     0.42564718
     0.62500000     0.24115403     0.42564718
     0.62500000     0.29378561     0.42564718
     0.62500000     0.34641719     0.42564718
     0.62500000     0.39904876     0.42564718
     0.62500000     0.45168034     0.42564718
     0.62500000     0.50431192     0.42564718
     0.62500000     0.55694350     0.42564718
     0.62500000     0.60957508     0.42564718
     0.62500000     0.66220666     0.42564718
     0.62500000     0.71483824     0.42564718
     0.62500000     0.76746982     0.42564718
     0.62500000     0.82010140     0.42564718
     0.62500000     0.87273297     0.42564718
     0.62500000     0.92536455     0.42564718
     0.62500000     0.97799613     0.42564718
     0.65277778     0.03062771     0.42564718
     0.65277778     0.08325929     0.42564718
     0.65277778     0.13589087     0.42564718
     0.65277778     0.18852245     0.42564718
     0.65277778     0.24115403     0.42564718
     0.65277778     0.29378561     0.42564718
     0.65277778     0.34641719     0.42564718
     0.65277778     0.39904876     0.42564718
     0.65277778     0.45168034     0.42564718
     0.65277778     0.50431192     0.42564718
     0.65277778     0.55694350     0.42564718
     0.65277778     0.60957508     0.42564718
     0.65277778     0.66220666     0.42564718
     0.65277778     0.71483824     0.42564718
     0.65277778     0.76746982     0.42564718
     0.65277778     0.82010140     0.42564718
     0.65277778     0.87273297     0.42564718
     0.65277778     0.92536455     0.42564718
     0.65277778     0.97799613     0.42564718
     0.68055556     0.03062771     0.42564718
     0.68055556     0.08325929     0.42564718
     0.68055556     0.13589087     0.42564718
     0.68055556     0.18852245     0.42564718
     0.68055556     0.24115403     0.42564718
     0.68055556     0.29378561     0.42564718
     0.68055556     0.34641719     0.42564718
     0.68055556     0.39904876     0.42564718
     0.68055556     0.45168034     0.42564718
     0.68055556     0.50431192     0.42564718
     0.68055556     0.55694350     0.42564718
     0.68055556     0.60957508     0.42564718
     0.68055556     0.66220666     0.42564718
     0.68055556     0.71483824     0.42564718
     0.68055556     0.76746982     0.42564718
     0.68055556     0.82010140     0.42564718
     0.68055556     0.87273297     0.42564718
     0.68055556     0.92536455     0.42564718
     0.68055556     0.97799613     0.42564718
     0.70833333     0.03062771     0.42564718
     0.70833333     0.08325929     0.42564718
     0.70833333     0.13589087     0.42564718
     0.70833333     0.18852245     0.42564718
     0.70833333     0.24115403     0.42564718
     0.70833333     0.29378561     0.42564718
     0.70833333     0.34641719     0.42564718
     0.70833333     0.39904876     0.42564718
     0.70833333     0.45168034     0.42564718
     0.70833333     0.50431192     0.42564718
     0.70833333     0.55694350     0.42564718
     0.70833333     0.60957508     0.42564718
     0.70833333     0.66220666     0.42564718
     0.70833333     0.71483824     0.42564718
     0.70833333     0.76746982     0.42564718
     0.70833333     0.82010140     0.42564718
     0.70833333     0.87273297     0.42564718
     0.70833333     0.92536455     0.42564718
     0.70833333     0.97799613     0.42564718
     0.73611111     0.03062771     0.42564718
     0.73611111     0.08325929     0.42564718
     0.73611111     0.13589087     0.42564718
     0.73611111     0.18852245     0.42564718
     0.73611111     0.24115403     0.42564718
     0.73611111     0.29378561     0.42564718
     0.73611111     0.34641719     0.42564718
     0.73611111     0.39904876     0.42564718
     0.73611111     0.45168034     0.42564718
     0.73611111     0.50431192     0.42564718
     0.73611111     0.55694350     0.42564718
     0.73611111     0.60957508     0.42564718
     0.73611111     0.66220666     0.42564718
     0.73611111     0.71483824     0.42564718
     0.73611111     0.76746982     0.42564718
     0.73611111     0.82010140     0.42564718
     0.73611111     0.87273297     0.42564718
     0.73611111     0.92536455     0.42564718
     0.73611111     0.97799613     0.42564718
     0.76388889     0.03062771     0.42564718
     0.76388889     0.08325929     0.42564718
     0.76388889     0.13589087     0.42564718
     0.76388889     0.18852245     0.42564718
     0.76388889     0.24115403     0.42564718
     0.76388889     0.29378561     0.42564718
     0.76388889     0.34641719     0.42564718
     0.76388889     0.39904876     0.42564718
     0.76388889     0.45168034     0.42564718
     0.76388889     0.50431192     0.42564718
     0.76388889     0.55694350     0.42564718
     0.76388889     0.60957508     0.42564718
     0.76388889     0.66220666     0.42564718
     0.76388889     0.71483824     0.42564718
     0.76388889     0.76746982     0.42564718
     0.76388889     0.82010140     0.42564718
     0.76388889     0.87273297     0.42564718
     0.76388889     0.92536455     0.42564718
     0.76388889     0.97799613     0.42564718
     0.79166667     0.03062771     0.42564718
     0.79166667     0.08325929     0.42564718
     0.79166667     0.13589087     0.42564718
     0.79166667     0.18852245     0.42564718
     0.79166667     0.24115403     0.42564718
     0.79166667     0.29378561     0.42564718
     0.79166667     0.34641719     0.42564718
     0.79166667     0.39904876     0.42564718
     0.79166667     0.45168034     0.42564718
     0.79166667     0.50431192     0.42564718
     0.79166667     0.55694350     0.42564718
     0.79166667     0.60957508     0.42564718
     0.79166667     0.66220666     0.42564718
     0.79166667     0.71483824     0.42564718
     0.79166667     0.76746982     0.42564718
     0.79166667     0.82010140     0.42564718
     0.79166667     0.87273297     0.42564718
     0.79166667     0.92536455     0.42564718
     0.79166667     0.97799613     0.42564718
     0.81944444     0.03062771     0.42564718
     0.81944444     0.08325929     0.42564718
     0.81944444     0.13589087     0.42564718
     0.81944444     0.18852245     0.42564718
     0.81944444     0.24115403     0.42564718
     0.81944444     0.29378561     0.42564718
     0.81944444     0.34641719     0.42564718
     0.81944444     0.39904876     0.42564718
     0.81944444     0.45168034     0.42564718
     0.81944444     0.50431192     0.42564718
     0.81944444     0.55694350     0.42564718
     0.81944444     0.60957508     0.42564718
     0.81944444     0.66220666     0.42564718
     0.81944444     0.71483824     0.42564718
     0.81944444     0.76746982     0.42564718
     0.81944444     0.82010140     0.42564718
     0.81944444     0.87273297     0.42564718
     0.81944444     0.92536455     0.42564718
     0.81944444     0.97799613     0.42564718
     0.84722222     0.03062771     0.42564718
     0.84722222     0.08325929     0.42564718
     0.84722222     0.13589087     0.42564718
     0.84722222     0.18852245     0.42564718
     0.84722222     0.24115403     0.42564718
     0.84722222     0.29378561     0.42564718
     0.84722222     0.34641719     0.42564718
     0.84722222     0.39904876     0.42564718
     0.84722222     0.45168034     0.42564718
     0.84722222     0.50431192     0.42564718
     0.84722222     0.55694350     0.42564718
     0.84722222     0.60957508     0.42564718
     0.84722222     0.66220666     0.42564718
     0.84722222     0.71483824     0.42564718
     0.84722222     0.76746982     0.42564718
     0.84722222     0.82010140     0.42564718
     0.84722222     0.87273297     0.42564718
     0.84722222     0.92536455     0.42564718
     0.84722222     0.97799613     0.42564718
     0.87500000     0.03062771     0.42564718
     0.87500000     0.08325929     0.42564718
     0.87500000     0.13589087     0.42564718
     0.87500000     0.18852245     0.42564718
     0.87500000     0.24115403     0.42564718
     0.87500000     0.29378561     0.42564718
     0.87500000     0.34641719     0.42564718
     0.87500000     0.39904876     0.42564718
     0.87500000     0.45168034     0.42564718
     0.87500000     0.50431192     0.42564718
     0.87500000     0.55694350     0.42564718
     0.87500000     0.60957508     0.42564718
     0.87500000     0.66220666     0.42564718
     0.87500000     0.71483824     0.42564718
     0.87500000     0.76746982     0.42564718
     0.87500000     0.82010140     0.42564718
     0.87500000     0.87273297     0.42564718
     0.87500000     0.92536455     0.42564718
     0.87500000     0.97799613     0.42564718
     0.90277778     0.03062771     0.42564718
     0.90277778     0.08325929     0.42564718
     0.90277778     0.13589087     0.42564718
     0.90277778     0.18852245     0.42564718
     0.90277778     0.24115403     0.42564718
     0.90277778     0.29378561     0.42564718
     0.90277778     0.34641719     0.42564718
     0.90277778     0.39904876     0.42564718
     0.90277778     0.45168034     0.42564718
     0.90277778     0.50431192     0.42564718
     0.90277778     0.55694350     0.42564718
     0.90277778     0.60957508     0.42564718
     0.90277778     0.66220666     0.42564718
     0.90277778     0.71483824     0.42564718
     0.90277778     0.76746982     0.42564718
     0.90277778     0.82010140     0.42564718
     0.90277778     0.87273297     0.42564718
     0.90277778     0.92536455     0.42564718
     0.90277778     0.97799613     0.42564718
     0.93055556     0.03062771     0.42564718
     0.93055556     0.08325929     0.42564718
     0.93055556     0.13589087     0.42564718
     0.93055556     0.18852245     0.42564718
     0.93055556     0.24115403     0.42564718
     0.93055556     0.29378561     0.42564718
     0.93055556     0.34641719     0.42564718
     0.93055556     0.39904876     0.42564718
     0.93055556     0.45168034     0.42564718
     0.93055556     0.50431192     0.42564718
     0.93055556     0.55694350     0.42564718
     0.93055556     0.60957508     0.42564718
     0.93055556     0.66220666     0.42564718
     0.93055556     0.71483824     0.42564718
     0.93055556     0.76746982     0.42564718
     0.93055556     0.82010140     0.42564718
     0.93055556     0.87273297     0.42564718
     0.93055556     0.92536455     0.42564718
     0.93055556     0.97799613     0.42564718
     0.95833333     0.03062771     0.42564718