Generated by Twist2D
    1.0
     141.77098430       0.00000000       0.00000000
       0.00000000     106.33167189       0.00000000
       0.00000000       0.00000000      20.00000000
    P
    8260
Direct
     0.01162791     0.02424694     0.42564718
     0.01162791     0.06591361     0.42564718
     0.01162791     0.10758027     0.42564718
     0.01162791     0.14924694     0.42564718
     0.01162791     0.19091361     0.42564718
     0.01162791     0.23258027     0.42564718
     0.01162791     0.27424694     0.42564718
     0.01162791     0.31591361     0.42564718
     0.01162791     0.35758027     0.42564718
     0.01162791     0.39924694     0.42564718
     0.01162791     0.44091361     0.42564718
     0.01162791     0.48258027     0.42564718
     0.01162791     0.52424694     0.42564718
     0.01162791     0.56591361     0.42564718
     0.01162791     0.60758027     0.42564718
     0.01162791     0.64924694     0.42564718
     0.01162791     0.69091361     0.42564718
     0.01162791     0.73258027     0.42564718
     0.01162791     0.77424694     0.42564718
     0.01162791     0.81591361     0.42564718
     0.01162791     0.85758027     0.42564718
     0.01162791     0.89924694     0.42564718
     0.01162791     0.94091361     0.42564718
     0.01162791     0.98258027     0.42564718
     0.03488372     0.02424694     0.42564718
     0.03488372     0.06591361     0.42564718
     0.03488372     0.10758027     0.42564718
     0.03488372     0.14924694     0.42564718
     0.03488372     0.19091361     0.42564718
     0.03488372     0.23258027     0.42564718
     0.03488372     0.27424694     0.42564718
     0.03488372     0.31591361     0.42564718
     0.03488372     0.35758027     0.42564718
     0.03488372     0.39924694     0.42564718
     0.03488372     0.44091361     0.42564718
     0.03488372     0.48258027     0.42564718
     0.03488372     0.52424694     0.42564718
     0.03488372     0.56591361     0.42564718
     0.03488372     0.60758027     0.42564718
     0.03488372     0.64924694     0.42564718
     0.03488372     0.69091361     0.42564718
     0.03488372     0.73258027     0.42564718
     0.03488372     0.77424694     0.42564718
     0.03488372     0.81591361     0.42564718
     0.03488372     0.85758027     0.42564718
     0.03488372     0.89924694     0.42564718
     0.03488372     0.94091361     0.42564718
     0.03488372     0.98258027     0.42564718
     0.05813953     0.02424694     0.42564718
     0.05813953     0.06591361     0.42564718
     0.05813953     0.10758027     0.42564718
     0.05813953     0.14924694     0.42564718
     0.05813953     0.19091361     0.42564718
     0.05813953     0.23258027     0.42564718
     0.05813953     0.27424694     0.42564718
     0.05813953     0.31591361     0.42564718
     0.05813953     0.35758027     0.42564718
     0.05813953     0.39924694     0.42564718
     0.05813953     0.44091361     0.42564718
     0.05813953     0.48258027     0.42564718
     0.05813953     0.52424694     0.42564718
     0.05813953     0.56591361     0.42564718
     0.05813953     0.60758027     0.42564718
     0.05813953     0.64924694     0.42564718
     0.05813953     0.69091361     0.42564718
     0.05813953     0.73258027     0.42564718
     0.05813953     0.77424694     0.42564718
     0.05813953     0.81591361     0.42564718
     0.05813953     0.85758027     0.42564718
     0.05813953     0.89924694     0.42564718
     0.05813953     0.94091361     0.42564718
     0.05813953     0.98258027     0.42564718
     0.08139535     0.02424694     0.42564718
     0.08139535     0.06591361     0.42564718
     0.08139535     0.10758027     0.42564718
     0.08139535     0.14924694     0.42564718
     0.08139535     0.19091361     0.42564718
     0.08139535     0.23258027     0.42564718
     0.08139535     0.27424694     0.42564718
     0.08139535     0.31591361     0.42564718
     0.08139535     0.35758027     0.42564718
     0.08139535     0.39924694     0.42564718
     0.08139535     0.44091361     0.42564718
     0.08139535     0.48258027     0.42564718
     0.08139535     0.52424694     0.42564718
     0.08139535     0.56591361     0.42564718
     0.08139535     0.60758027     0.42564718
     0.08139535     0.64924694     0.42564718
     0.08139535     0.69091361     0.42564718
     0.08139535     0.73258027     0.42564718
     0.08139535     0.77424694     0.42564718
     0.08139535     0.81591361     0.42564718
     0.08139535     0.85758027     0.42564718
     0.08139535     0.89924694     0.42564718
     0.08139535     0.94091361     0.42564718
     0.08139535     0.98258027     0.42564718
     0.10465116     0.02424694     0.42564718
     0.10465116     0.06591361     0.42564718
     0.10465116     0.10758027     0.42564718
     0.10465116     0.14924694     0.42564718
     0.10465116     0.19091361     0.42564718
     0.10465116     0.23258027     0.42564718
     0.10465116     0.27424694     0.42564718
     0.10465116     0.31591361     0.42564718
     0.10465116     0.35758027     0.42564718
     0.10465116     0.39924694     0.42564718
     0.10465116     0.44091361     0.42564718
     0.10465116     0.48258027     0.42564718
     0.10465116     0.52424694     0.42564718
     0.10465116     0.56591361     0.42564718
     0.10465116     0.60758027     0.42564718
     0.10465116     0.64924694     0.42564718
     0.10465116     0.69091361     0.42564718
     0.10465116     0.73258027     0.42564718
     0.10465116     0.77424694     0.42564718
     0.10465116     0.81591361     0.42564718
     0.10465116     0.85758027     0.42564718
     0.10465116     0.89924694     0.42564718
     0.10465116     0.94091361     0.42564718
     0.10465116     0.98258027     0.42564718
     0.12790698     0.02424694     0.42564718
     0.12790698     0.06591361     0.42564718
     0.12790698     0.10758027     0.42564718
     0.12790698     0.14924694     0.42564718
     0.12790698     0.19091361     0.42564718
     0.12790698     0.23258027     0.42564718
     0.12790698     0.27424694     0.42564718
     0.12790698     0.31591361     0.42564718
     0.12790698     0.35758027     0.42564718
     0.12790698     0.39924694     0.42564718
     0.12790698     0.44091361     0.42564718
     0.12790698     0.48258027     0.42564718
     0.12790698     0.52424694     0.42564718
     0.12790698     0.56591361     0.42564718
     0.12790698     0.60758027     0.42564718
     0.12790698     0.64924694     0.42564718
     0.12790698     0.69091361     0.42564718
     0.12790698     0.73258027     0.42564718
     0.12790698     0.77424694     0.42564718
     0.12790698     0.81591361     0.42564718
     0.12790698     0.85758027     0.42564718
     0.12790698     0.89924694     0.42564718
     0.12790698     0.94091361     0.42564718
     0.12790698     0.98258027     0.42564718
     0.15116279     0.02424694     0.42564718
     0.15116279     0.06591361     0.42564718
     0.15116279     0.10758027     0.42564718
     0.15116279     0.14924694     0.42564718
     0.15116279     0.19091361     0.42564718
     0.15116279     0.23258027     0.42564718
     0.15116279     0.27424694     0.42564718
     0.15116279     0.31591361     0.42564718
     0.15116279     0.35758027     0.42564718
     0.15116279     0.39924694     0.42564718
     0.15116279     0.44091361     0.42564718
     0.15116279     0.48258027     0.42564718
     0.15116279     0.52424694     0.42564718
     0.15116279     0.56591361     0.42564718
     0.15116279     0.60758027     0.42564718
     0.15116279     0.64924694     0.42564718
     0.15116279     0.69091361     0.42564718
     0.15116279     0.73258027     0.42564718
     0.15116279     0.77424694     0.42564718
     0.15116279     0.81591361     0.42564718
     0.15116279     0.85758027     0.42564718
     0.15116279     0.89924694     0.42564718
     0.15116279     0.94091361     0.42564718
     0.15116279     0.98258027     0.42564718
     0.17441860     0.02424694     0.42564718
     0.17441860     0.06591361     0.42564718
     0.17441860     0.10758027     0.42564718
     0.17441860     0.14924694     0.42564718
     0.17441860     0.19091361     0.42564718
     0.17441860     0.23258027     0.42564718
     0.17441860     0.27424694     0.42564718
     0.17441860     0.31591361     0.42564718
     0.17441860     0.35758027     0.42564718
     0.17441860     0.39924694     0.42564718
     0.17441860     0.44091361     0.42564718
     0.17441860     0.48258027     0.42564718
     0.17441860     0.52424694     0.42564718
     0.17441860     0.56591361     0.42564718
     0.17441860     0.60758027     0.42564718
     0.17441860     0.64924694     0.42564718
     0.17441860     0.69091361     0.42564718
     0.17441860     0.73258027     0.42564718
     0.17441860     0.77424694     0.42564718
     0.17441860     0.81591361     0.42564718
     0.17441860     0.85758027     0.42564718
     0.17441860     0.89924694     0.42564718
     0.17441860     0.94091361     0.42564718
     0.17441860     0.98258027     0.42564718
     0.19767442     0.02424694     0.42564718
     0.19767442     0.06591361     0.42564718
     0.19767442     0.10758027     0.42564718
     0.19767442     0.14924694     0.42564718
     0.19767442     0.19091361     0.42564718
     0.19767442     0.23258027     0.42564718
     0.19767442     0.27424694     0.42564718
     0.19767442     0.31591361     0.42564718
     0.19767442     0.35758027     0.42564718
     0.19767442     0.39924694     0.42564718
     0.19767442     0.44091361     0.42564718
     0.19767442     0.48258027     0.42564718
     0.19767442     0.52424694     0.42564718
     0.19767442     0.56591361     0.42564718
     0.19767442     0.60758027     0.42564718
     0.19767442     0.64924694     0.42564718
     0.19767442     0.69091361     0.42564718
     0.19767442     0.73258027     0.42564718
     0.19767442     0.77424694     0.42564718
     0.19767442     0.81591361     0.42564718
     0.19767442     0.85758027     0.42564718
     0.19767442     0.89924694     0.42564718
     0.19767442     0.94091361     0.42564718
     0.19767442     0.98258027     0.42564718
     0.22093023     0.02424694     0.42564718
     0.22093023     0.06591361     0.42564718
     0.22093023     0.10758027     0.42564718
     0.22093023     0.14924694     0.42564718
     0.22093023     0.19091361     0.42564718
     0.22093023     0.23258027     0.42564718
     0.22093023     0.27424694     0.42564718
     0.22093023     0.31591361     0.42564718
     0.22093023     0.35758027     0.42564718
     0.22093023     0.39924694     0.42564718
     0.22093023     0.44091361     0.42564718
     0.22093023     0.48258027     0.42564718
     0.22093023     0.52424694     0.42564718
     0.22093023     0.56591361     0.42564718
     0.22093023     0.60758027     0.42564718
     0.22093023     0.64924694     0.42564718
     0.22093023     0.69091361     0.42564718
     0.22093023     0.73258027     0.42564718
     0.22093023     0.77424694     0.42564718
     0.22093023     0.81591361     0.42564718
     0.22093023     0.85758027     0.42564718
     0.22093023     0.89924694     0.42564718
     0.22093023     0.94091361     0.42564718
     0.22093023     0.98258027     0.42564718
     0.24418605     0.02424694     0.42564718
     0.24418605     0.06591361     0.42564718
     0.24418605     0.10758027     0.42564718
     0.24418605     0.14924694     0.42564718
     0.24418605     0.19091361     0.42564718
     0.24418605     0.23258027     0.42564718
     0.24418605     0.27424694     0.42564718
     0.24418605     0.31591361     0.42564718
     0.24418605     0.35758027     0.42564718
     0.24418605     0.39924694     0.42564718
     0.24418605     0.44091361     0.42564718
     0.24418605     0.48258027     0.42564718
     0.24418605     0.52424694     0.42564718
     0.24418605     0.56591361     0.42564718
     0.24418605     0.60758027     0.42564718
     0.24418605     0.64924694     0.42564718
     0.24418605     0.69091361     0.42564718
     0.24418605     0.73258027     0.42564718
     0.24418605     0.77424694     0.42564718
     0.24418605     0.81591361     0.42564718
     0.24418605     0.85758027     0.42564718
     0.24418605     0.89924694     0.42564718
     0.24418605     0.94091361     0.42564718
     0.24418605     0.98258027     0.42564718
     0.26744186     0.02424694     0.42564718
     0.26744186     0.06591361     0.42564718
     0.26744186     0.10758027     0.42564718
     0.26744186     0.14924694     0.42564718
     0.26744186     0.19091361     0.42564718
     0.26744186     0.23258027     0.42564718
     0.26744186     0.27424694     0.42564718
     0.26744186     0.31591361     0.42564718
     0.26744186     0.35758027     0.42564718
     0.26744186     0.39924694     0.42564718
     0.26744186     0.44091361     0.42564718
     0.26744186     0.48258027     0.42564718
     0.26744186     0.52424694     0.42564718
     0.26744186     0.56591361     0.42564718
     0.26744186     0.60758027     0.42564718
     0.26744186     0.64924694     0.42564718
     0.26744186     0.69091361     0.42564718
     0.26744186     0.73258027     0.42564718
     0.26744186     0.77424694     0.42564718
     0.26744186     0.81591361     0.42564718
     0.26744186     0.85758027     0.42564718
     0.26744186     0.89924694     0.42564718
     0.26744186     0.94091361     0.42564718
     0.26744186     0.98258027     0.42564718
     0.29069767     0.02424694     0.42564718
     0.29069767     0.06591361     0.42564718
     0.29069767     0.10758027     0.42564718
     0.29069767     0.14924694     0.42564718
     0.29069767     0.19091361     0.42564718
     0.29069767     0.23258027     0.42564718
     0.29069767     0.27424694     0.42564718
     0.29069767     0.31591361     0.42564718
     0.29069767     0.35758027     0.42564718
     0.29069767     0.39924694     0.42564718
     0.29069767     0.44091361     0.42564718
     0.29069767     0.48258027     0.42564718
     0.29069767     0.52424694     0.42564718
     0.29069767     0.56591361     0.42564718
     0.29069767     0.60758027     0.42564718
     0.29069767     0.64924694     0.42564718
     0.29069767     0.69091361     0.42564718
     0.29069767     0.73258027     0.42564718
     0.29069767     0.77424694     0.42564718
     0.29069767     0.81591361     0.42564718
     0.29069767     0.85758027     0.42564718
     0.29069767     0.89924694     0.42564718
     0.29069767     0.94091361     0.42564718
     0.29069767     0.98258027     0.42564718
     0.31395349     0.02424694     0.42564718
     0.31395349     0.06591361     0.42564718
     0.31395349     0.10758027     0.42564718
     0.31395349     0.14924694     0.42564718
     0.31395349     0.19091361     0.42564718
     0.31395349     0.23258027     0.42564718
     0.31395349     0.27424694     0.42564718
     0.31395349     0.31591361     0.42564718
     0.31395349     0.35758027     0.42564718
     0.31395349     0.39924694     0.42564718
     0.31395349     0.44091361     0.42564718
     0.31395349     0.48258027     0.42564718
     0.31395349     0.52424694     0.42564718
     0.31395349     0.56591361     0.42564718
     0.31395349     0.60758027     0.42564718
     0.31395349     0.64924694     0.42564718
     0.31395349     0.69091361     0.42564718
     0.31395349     0.73258027     0.42564718
     0.31395349     0.77424694     0.42564718
     0.31395349     0.81591361     0.42564718
     0.31395349     0.85758027     0.42564718
     0.31395349     0.89924694     0.42564718
     0.31395349     0.94091361     0.42564718
     0.31395349     0.98258027     0.42564718
     0.33720930     0.02424694     0.42564718
     0.33720930     0.06591361     0.42564718
     0.33720930     0.10758027     0.42564718
     0.33720930     0.14924694     0.42564718
     0.33720930     0.19091361     0.42564718
     0.33720930     0.23258027     0.42564718
     0.33720930     0.27424694     0.42564718
     0.33720930     0.31591361     0.42564718
     0.33720930     0.35758027     0.42564718
     0.33720930     0.39924694     0.42564718
     0.33720930     0.44091361     0.42564718
     0.33720930     0.48258027     0.42564718
     0.33720930     0.52424694     0.42564718
     0.33720930     0.56591361     0.42564718
     0.33720930     0.60758027     0.42564718
     0.33720930     0.64924694     0.42564718
     0.33720930     0.69091361     0.42564718
     0.33720930     0.73258027     0.42564718
     0.33720930     0.77424694     0.42564718
     0.33720930     0.81591361     0.42564718
     0.33720930     0.85758027     0.42564718
     0.33720930     0.89924694     0.42564718
     0.33720930     0.94091361     0.42564718
     0.33720930     0.98258027     0.42564718
     0.36046512     0.02424694     0.42564718
     0.36046512     0.06591361     0.42564718
     0.36046512     0.10758027     0.42564718
     0.36046512     0.14924694     0.42564718
     0.36046512     0.19091361     0.42564718
     0.36046512     0.23258027     0.42564718
     0.36046512     0.27424694     0.42564718
     0.36046512     0.31591361     0.42564718
     0.36046512     0.35758027     0.42564718
     0.36046512     0.39924694     0.42564718
     0.36046512     0.44091361     0.42564718
     0.36046512     0.48258027     0.42564718
     0.36046512     0.52424694     0.42564718
     0.36046512     0.56591361     0.42564718
     0.36046512     0.60758027     0.42564718
     0.36046512     0.64924694     0.42564718
     0.36046512     0.69091361     0.42564718
     0.36046512     0.73258027     0.42564718
     0.36046512     0.77424694     0.42564718
     0.36046512     0.81591361     0.42564718
     0.36046512     0.85758027     0.42564718
     0.36046512     0.89924694     0.42564718
     0.36046512     0.94091361     0.42564718
     0.36046512     0.98258027     0.42564718
     0.38372093     0.02424694     0.42564718
     0.38372093     0.06591361     0.42564718
     0.38372093     0.10758027     0.42564718
     0.38372093     0.14924694     0.42564718
     0.38372093     0.19091361     0.42564718
     0.38372093     0.23258027     0.42564718
     0.38372093     0.27424694     0.42564718
     0.38372093     0.31591361     0.42564718
     0.38372093     0.35758027     0.42564718
     0.38372093     0.39924694     0.42564718
     0.38372093     0.44091361     0.42564718
     0.38372093     0.48258027     0.42564718
     0.38372093     0.52424694     0.42564718
     0.38372093     0.56591361     0.42564718
     0.38372093     0.60758027     0.42564718
     0.38372093     0.64924694     0.42564718
     0.38372093     0.69091361     0.42564718
     0.38372093     0.73258027     0.42564718
     0.38372093     0.77424694     0.42564718
     0.38372093     0.81591361     0.42564718
     0.38372093     0.85758027     0.42564718
     0.38372093     0.89924694     0.42564718
     0.38372093     0.94091361     0.42564718
     0.38372093     0.98258027     0.42564718
     0.40697674     0.02424694     0.42564718
     0.40697674     0.06591361     0.42564718
     0.40697674     0.10758027     0.42564718
     0.40697674     0.14924694     0.42564718
     0.40697674     0.19091361     0.42564718
     0.40697674     0.23258027     0.42564718
     0.40697674     0.27424694     0.42564718
     0.40697674     0.31591361     0.42564718
     0.40697674     0.35758027     0.42564718
     0.40697674     0.39924694     0.42564718
     0.40697674     0.44091361     0.42564718
     0.40697674     0.48258027     0.42564718
     0.40697674     0.52424694     0.42564718
     0.40697674     0.56591361     0.42564718
     0.40697674     0.60758027     0.42564718
     0.40697674     0.64924694     0.42564718
     0.40697674     0.69091361     0.42564718
     0.40697674     0.73258027     0.42564718
     0.40697674     0.77424694     0.42564718
     0.40697674     0.81591361     0.42564718
     0.40697674     0.85758027     0.42564718
     0.40697674     0.89924694     0.42564718
     0.40697674     0.94091361     0.42564718
     0.40697674     0.98258027     0.42564718
     0.43023256     0.02424694     0.42564718
     0.43023256     0.06591361     0.42564718
     0.43023256     0.10758027     0.42564718
     0.43023256     0.14924694     0.42564718
     0.43023256     0.19091361     0.42564718
     0.43023256     0.23258027     0.42564718
     0.43023256     0.27424694     0.42564718
     0.43023256     0.31591361     0.42564718
     0.43023256     0.35758027     0.42564718
     0.43023256     0.39924694     0.42564718
     0.43023256     0.44091361     0.42564718
     0.43023256     0.48258027     0.42564718
     0.43023256     0.52424694     0.42564718
     0.43023256     0.56591361     0.42564718
     0.43023256     0.60758027     0.42564718
     0.43023256     0.64924694     0.42564718
     0.43023256     0.69091361     0.42564718
     0.43023256     0.73258027     0.42564718
     0.43023256     0.77424694     0.42564718
     0.43023256     0.81591361     0.42564718
     0.43023256     0.85758027     0.42564718
     0.43023256     0.89924694     0.42564718
     0.43023256     0.94091361     0.42564718
     0.43023256     0.98258027     0.42564718
     0.45348837     0.02424694     0.42564718
     0.45348837     0.06591361     0.42564718
     0.45348837     0.10758027     0.42564718
     0.45348837     0.14924694     0.42564718
     0.45348837     0.19091361     0.42564718
     0.45348837     0.23258027     0.42564718
     0.45348837     0.27424694     0.42564718
     0.45348837     0.31591361     0.42564718
     0.45348837     0.35758027     0.42564718
     0.45348837     0.39924694     0.42564718
     0.45348837     0.44091361     0.42564718
     0.45348837     0.48258027     0.42564718
     0.45348837     0.52424694     0.42564718
     0.45348837     0.56591361     0.42564718
     0.45348837     0.60758027     0.42564718
     0.45348837     0.64924694     0.42564718
     0.45348837     0.69091361     0.42564718
     0.45348837     0.73258027     0.42564718
     0.45348837     0.77424694     0.42564718
     0.45348837     0.81591361     0.42564718
     0.45348837     0.85758027     0.42564718
     0.45348837     0.89924694     0.42564718
     0.45348837     0.94091361     0.42564718
     0.45348837     0.98258027     0.42564718
     0.47674419     0.02424694     0.42564718
     0.47674419     0.06591361     0.42564718
     0.47674419     0.10758027     0.42564718
     0.47674419     0.14924694     0.42564718
     0.47674419     0.19091361     0.42564718
     0.47674419     0.23258027     0.42564718
     0.47674419     0.27424694     0.42564718
     0.47674419     0.31591361     0.42564718
     0.47674419     0.35758027     0.42564718
     0.47674419     0.39924694     0.42564718
     0.47674419     0.44091361     0.42564718
     0.47674419     0.48258027     0.42564718
     0.47674419     0.52424694     0.42564718
     0.47674419     0.56591361     0.42564718
     0.47674419     0.60758027     0.42564718
     0.47674419     0.64924694     0.42564718
     0.47674419     0.69091361     0.42564718
     0.47674419     0.73258027     0.42564718
     0.47674419     0.77424694     0.42564718
     0.47674419     0.81591361     0.42564718
     0.47674419     0.85758027     0.42564718
     0.47674419     0.89924694     0.42564718
     0.47674419     0.94091361     0.42564718
     0.47674419     0.98258027     0.42564718
     0.50000000     0.02424694     0.42564718
     0.50000000     0.06591361     0.42564718
     0.50000000     0.10758027     0.42564718
     0.50000000     0.14924694     0.42564718
     0.50000000     0.19091361     0.42564718
     0.50000000     0.23258027     0.42564718
     0.50000000     0.27424694     0.42564718
     0.50000000     0.31591361     0.42564718
     0.50000000     0.35758027     0.42564718
     0.50000000     0.39924694     0.42564718
     0.50000000     0.44091361     0.42564718
     0.50000000     0.48258027     0.42564718
     0.50000000     0.52424694     0.42564718
     0.50000000     0.56591361     0.42564718
     0.50000000     0.60758027     0.42564718
     0.50000000     0.64924694     0.42564718
     0.50000000     0.69091361     0.42564718
     0.50000000     0.73258027     0.42564718
     0.50000000     0.77424694     0.42564718
     0.50000000     0.81591361     0.42564718
     0.50000000     0.85758027     0.42564718
     0.50000000     0.89924694     0.42564718
     0.50000000     0.94091361     0.42564718
     0.50000000     0.98258027     0.42564718
     0.52325581     0.02424694     0.42564718
     0.52325581     0.06591361     0.42564718
     0.52325581     0.10758027     0.42564718
     0.52325581     0.14924694     0.42564718
     0.52325581     0.19091361     0.42564718
     0.52325581     0.23258027     0.42564718
     0.52325581     0.27424694     0.42564718
     0.52325581     0.31591361     0.42564718
     0.52325581     0.35758027     0.42564718
     0.52325581     0.39924694     0.42564718
     0.52325581     0.44091361     0.42564718
     0.52325581     0.48258027     0.42564718
     0.52325581     0.52424694     0.42564718
     0.52325581     0.56591361     0.42564718
     0.52325581     0.60758027     0.42564718
     0.52325581     0.64924694     0.42564718
     0.52325581     0.69091361     0.42564718
     0.52325581     0.73258027     0.42564718
     0.52325581     0.77424694     0.42564718
     0.52325581     0.81591361     0.42564718
     0.52325581     0.85758027     0.42564718
     0.52325581     0.89924694     0.42564718
     0.52325581     0.94091361     0.42564718
     0.52325581     0.98258027     0.42564718
     0.54651163     0.02424694     0.42564718
     0.54651163     0.06591361     0.42564718
     0.54651163     0.10758027     0.42564718
     0.54651163     0.14924694     0.42564718
     0.54651163     0.19091361     0.42564718
     0.54651163     0.23258027     0.42564718
     0.54651163     0.27424694     0.42564718
     0.54651163     0.31591361     0.42564718
     0.54651163     0.35758027     0.42564718
     0.54651163     0.39924694     0.42564718
     0.54651163     0.44091361     0.42564718
     0.54651163     0.48258027     0.42564718
     0.54651163     0.52424694     0.42564718
     0.54651163     0.56591361     0.42564718
     0.54651163     0.60758027     0.42564718
     0.54651163     0.64924694     0.42564718
     0.54651163     0.69091361     0.42564718
     0.54651163     0.73258027     0.42564718
     0.54651163     0.77424694     0.42564718
     0.54651163     0.81591361     0.42564718
     0.54651163     0.85758027     0.42564718
     0.54651163     0.89924694     0.42564718
     0.54651163     0.94091361     0.42564718
     0.54651163     0.98258027     0.42564718
     0.56976744     0.02424694     0.42564718
     0.56976744     0.06591361     0.42564718
     0.56976744     0.10758027     0.42564718
     0.56976744     0.14924694     0.42564718
     0.56976744     0.19091361     0.42564718
     0.56976744     0.23258027     0.42564718
     0.56976744     0.27424694     0.42564718
     0.56976744     0.31591361     0.42564718
     0.56976744     0.35758027     0.42564718
     0.56976744     0.39924694     0.42564718
     0.56976744     0.44091361     0.42564718
     0.56976744     0.48258027     0.42564718
     0.56976744     0.52424694     0.42564718
     0.56976744     0.56591361     0.42564718
     0.56976744     0.60758027     0.42564718
     0.56976744     0.64924694     0.42564718
     0.56976744     0.69091361     0.42564718
     0.56976744     0.73258027     0.42564718
     0.56976744     0.77424694     0.42564718
     0.56976744     0.81591361     0.42564718
     0.56976744     0.85758027     0.42564718
     0.56976744     0.89924694     0.42564718
     0.56976744     0.94091361     0.42564718
     0.56976744     0.98258027     0.42564718
     0.59302326     0.02424694     0.42564718
     0.59302326     0.06591361     0.42564718
     0.59302326     0.10758027     0.42564718
     0.59302326     0.14924694     0.42564718
     0.59302326     0.19091361     0.42564718
     0.59302326     0.23258027     0.42564718
     0.59302326     0.27424694     0.42564718
     0.59302326     0.31591361     0.42564718
     0.59302326     0.35758027     0.42564718
     0.59302326     0.39924694     0.42564718
     0.59302326     0.44091361     0.42564718
     0.59302326     0.48258027     0.42564718
     0.59302326     0.52424694     0.42564718
     0.59302326     0.56591361     0.42564718
     0.59302326     0.60758027     0.42564718
     0.59302326     0.64924694     0.42564718
     0.59302326     0.69091361     0.42564718
     0.59302326     0.73258027     0.42564718
     0.59302326     0.77424694     0.42564718
     0.59302326     0.81591361     0.42564718
     0.59302326     0.85758027     0.42564718
     0.59302326     0.89924694     0.42564718
     0.59302326     0.94091361     0.42564718
     0.59302326     0.98258027     0.42564718
     0.61627907     0.02424694     0.42564718
     0.61627907     0.06591361     0.42564718
     0.61627907     0.10758027     0.42564718
     0.61627907     0.14924694     0.42564718
     0.61627907     0.19091361     0.42564718
     0.61627907     0.23258027     0.42564718
     0.61627907     0.27424694     0.42564718
     0.61627907     0.31591361     0.42564718
     0.61627907     0.35758027     0.42564718
     0.61627907     0.39924694     0.42564718
     0.61627907     0.44091361     0.42564718
     0.61627907     0.48258027     0.42564718
     0.61627907     0.52424694     0.42564718
     0.61627907     0.56591361     0.42564718
     0.61627907     0.60758027     0.42564718
     0.61627907     0.64924694     0.42564718
     0.61627907     0.69091361     0.42564718
     0.61627907     0.73258027     0.42564718
     0.61627907     0.77424694     0.42564718
     0.61627907     0.81591361     0.42564718
     0.61627907     0.85758027     0.42564718
     0.61627907     0.89924694     0.42564718
     0.61627907     0.94091361     0.42564718