Generated by Twist2D
    1.0
     171.44398102       0.00000000       0.00000000
       0.00000000     119.62313088       0.00000000
       0.00000000       0.00000000      20.00000000
    P
    11236
Direct
     0.00961538     0.02155283     0.42564718
     0.00961538     0.05858987     0.42564718
     0.00961538     0.09562691     0.42564718
     0.00961538     0.13266395     0.42564718
     0.00961538     0.16970098     0.42564718
     0.00961538     0.20673802     0.42564718
     0.00961538     0.24377506     0.42564718
     0.00961538     0.28081209     0.42564718
     0.00961538     0.31784913     0.42564718
     0.00961538     0.35488617     0.42564718
     0.00961538     0.39192320     0.42564718
     0.00961538     0.42896024     0.42564718
     0.00961538     0.46599728     0.42564718
     0.00961538     0.50303432     0.42564718
     0.00961538     0.54007135     0.42564718
     0.00961538     0.57710839     0.42564718
     0.00961538     0.61414543     0.42564718
     0.00961538     0.65118246     0.42564718
     0.00961538     0.68821950     0.42564718
     0.00961538     0.72525654     0.42564718
     0.00961538     0.76229357     0.42564718
     0.00961538     0.79933061     0.42564718
     0.00961538     0.83636765     0.42564718
     0.00961538     0.87340469     0.42564718
     0.00961538     0.91044172     0.42564718
     0.00961538     0.94747876     0.42564718
     0.00961538     0.98451580     0.42564718
     0.02884615     0.02155283     0.42564718
     0.02884615     0.05858987     0.42564718
     0.02884615     0.09562691     0.42564718
     0.02884615     0.13266395     0.42564718
     0.02884615     0.16970098     0.42564718
     0.02884615     0.20673802     0.42564718
     0.02884615     0.24377506     0.42564718
     0.02884615     0.28081209     0.42564718
     0.02884615     0.31784913     0.42564718
     0.02884615     0.35488617     0.42564718
     0.02884615     0.39192320     0.42564718
     0.02884615     0.42896024     0.42564718
     0.02884615     0.46599728     0.42564718
     0.02884615     0.50303432     0.42564718
     0.02884615     0.54007135     0.42564718
     0.02884615     0.57710839     0.42564718
     0.02884615     0.61414543     0.42564718
     0.02884615     0.65118246     0.42564718
     0.02884615     0.68821950     0.42564718
     0.02884615     0.72525654     0.42564718
     0.02884615     0.76229357     0.42564718
     0.02884615     0.79933061     0.42564718
     0.02884615     0.83636765     0.42564718
     0.02884615     0.87340469     0.42564718
     0.02884615     0.91044172     0.42564718
     0.02884615     0.94747876     0.42564718
     0.02884615     0.98451580     0.42564718
     0.04807692     0.02155283     0.42564718
     0.04807692     0.05858987     0.42564718
     0.04807692     0.09562691     0.42564718
     0.04807692     0.13266395     0.42564718
     0.04807692     0.16970098     0.42564718
     0.04807692     0.20673802     0.42564718
     0.04807692     0.24377506     0.42564718
     0.04807692     0.28081209     0.42564718
     0.04807692     0.31784913     0.42564718
     0.04807692     0.35488617     0.42564718
     0.04807692     0.39192320     0.42564718
     0.04807692     0.42896024     0.42564718
     0.04807692     0.46599728     0.42564718
     0.04807692     0.50303432     0.42564718
     0.04807692     0.54007135     0.42564718
     0.04807692     0.57710839     0.42564718
     0.04807692     0.61414543     0.42564718
     0.04807692     0.65118246     0.42564718
     0.04807692     0.68821950     0.42564718
     0.04807692     0.72525654     0.42564718
     0.04807692     0.76229357     0.42564718
     0.04807692     0.79933061     0.42564718
     0.04807692     0.83636765     0.42564718
     0.04807692     0.87340469     0.42564718
     0.04807692     0.91044172     0.42564718
     0.04807692     0.94747876     0.42564718
     0.04807692     0.98451580     0.42564718
     0.06730769     0.02155283     0.42564718
     0.06730769     0.05858987     0.42564718
     0.06730769     0.09562691     0.42564718
     0.06730769     0.13266395     0.42564718
     0.06730769     0.16970098     0.42564718
     0.06730769     0.20673802     0.42564718
     0.06730769     0.24377506     0.42564718
     0.06730769     0.28081209     0.42564718
     0.06730769     0.31784913     0.42564718
     0.06730769     0.35488617     0.42564718
     0.06730769     0.39192320     0.42564718
     0.06730769     0.42896024     0.42564718
     0.06730769     0.46599728     0.42564718
     0.06730769     0.50303432     0.42564718
     0.06730769     0.54007135     0.42564718
     0.06730769     0.57710839     0.42564718
     0.06730769     0.61414543     0.42564718
     0.06730769     0.65118246     0.42564718
     0.06730769     0.68821950     0.42564718
     0.06730769     0.72525654     0.42564718
     0.06730769     0.76229357     0.42564718
     0.06730769     0.79933061     0.42564718
     0.06730769     0.83636765     0.42564718
     0.06730769     0.87340469     0.42564718
     0.06730769     0.91044172     0.42564718
     0.06730769     0.94747876     0.42564718
     0.06730769     0.98451580     0.42564718
     0.08653846     0.02155283     0.42564718
     0.08653846     0.05858987     0.42564718
     0.08653846     0.09562691     0.42564718
     0.08653846     0.13266395     0.42564718
     0.08653846     0.16970098     0.42564718
     0.08653846     0.20673802     0.42564718
     0.08653846     0.24377506     0.42564718
     0.08653846     0.28081209     0.42564718
     0.08653846     0.31784913     0.42564718
     0.08653846     0.35488617     0.42564718
     0.08653846     0.39192320     0.42564718
     0.08653846     0.42896024     0.42564718
     0.08653846     0.46599728     0.42564718
     0.08653846     0.50303432     0.42564718
     0.08653846     0.54007135     0.42564718
     0.08653846     0.57710839     0.42564718
     0.08653846     0.61414543     0.42564718
     0.08653846     0.65118246     0.42564718
     0.08653846     0.68821950     0.42564718
     0.08653846     0.72525654     0.42564718
     0.08653846     0.76229357     0.42564718
     0.08653846     0.79933061     0.42564718
     0.08653846     0.83636765     0.42564718
     0.08653846     0.87340469     0.42564718
     0.08653846     0.91044172     0.42564718
     0.08653846     0.94747876     0.42564718
     0.08653846     0.98451580     0.42564718
     0.10576923     0.02155283     0.42564718
     0.10576923     0.05858987     0.42564718
     0.10576923     0.09562691     0.42564718
     0.10576923     0.13266395     0.42564718
     0.10576923     0.16970098     0.42564718
     0.10576923     0.20673802     0.42564718
     0.10576923     0.24377506     0.42564718
     0.10576923     0.28081209     0.42564718
     0.10576923     0.31784913     0.42564718
     0.10576923     0.35488617     0.42564718
     0.10576923     0.39192320     0.42564718
     0.10576923     0.42896024     0.42564718
     0.10576923     0.46599728     0.42564718
     0.10576923     0.50303432     0.42564718
     0.10576923     0.54007135     0.42564718
     0.10576923     0.57710839     0.42564718
     0.10576923     0.61414543     0.42564718
     0.10576923     0.65118246     0.42564718
     0.10576923     0.68821950     0.42564718
     0.10576923     0.72525654     0.42564718
     0.10576923     0.76229357     0.42564718
     0.10576923     0.79933061     0.42564718
     0.10576923     0.83636765     0.42564718
     0.10576923     0.87340469     0.42564718
     0.10576923     0.91044172     0.42564718
     0.10576923     0.94747876     0.42564718
     0.10576923     0.98451580     0.42564718
     0.12500000     0.02155283     0.42564718
     0.12500000     0.05858987     0.42564718
     0.12500000     0.09562691     0.42564718
     0.12500000     0.13266395     0.42564718
     0.12500000     0.16970098     0.42564718
     0.12500000     0.20673802     0.42564718
     0.12500000     0.24377506     0.42564718
     0.12500000     0.28081209     0.42564718
     0.12500000     0.31784913     0.42564718
     0.12500000     0.35488617     0.42564718
     0.12500000     0.39192320     0.42564718
     0.12500000     0.42896024     0.42564718
     0.12500000     0.46599728     0.42564718
     0.12500000     0.50303432     0.42564718
     0.12500000     0.54007135     0.42564718
     0.12500000     0.57710839     0.42564718
     0.12500000     0.61414543     0.42564718
     0.12500000     0.65118246     0.42564718
     0.12500000     0.68821950     0.42564718
     0.12500000     0.72525654     0.42564718
     0.12500000     0.76229357     0.42564718
     0.12500000     0.79933061     0.42564718
     0.12500000     0.83636765     0.42564718
     0.12500000     0.87340469     0.42564718
     0.12500000     0.91044172     0.42564718
     0.12500000     0.94747876     0.42564718
     0.12500000     0.98451580     0.42564718
     0.14423077     0.02155283     0.42564718
     0.14423077     0.05858987     0.42564718
     0.14423077     0.09562691     0.42564718
     0.14423077     0.13266395     0.42564718
     0.14423077     0.16970098     0.42564718
     0.14423077     0.20673802     0.42564718
     0.14423077     0.24377506     0.42564718
     0.14423077     0.28081209     0.42564718
     0.14423077     0.31784913     0.42564718
     0.14423077     0.35488617     0.42564718
     0.14423077     0.39192320     0.42564718
     0.14423077     0.42896024     0.42564718
     0.14423077     0.46599728     0.42564718
     0.14423077     0.50303432     0.42564718
     0.14423077     0.54007135     0.42564718
     0.14423077     0.57710839     0.42564718
     0.14423077     0.61414543     0.42564718
     0.14423077     0.65118246     0.42564718
     0.14423077     0.68821950     0.42564718
     0.14423077     0.72525654     0.42564718
     0.14423077     0.76229357     0.42564718
     0.14423077     0.79933061     0.42564718
     0.14423077     0.83636765     0.42564718
     0.14423077     0.87340469     0.42564718
     0.14423077     0.91044172     0.42564718
     0.14423077     0.94747876     0.42564718
     0.14423077     0.98451580     0.42564718
     0.16346154     0.02155283     0.42564718
     0.16346154     0.05858987     0.42564718
     0.16346154     0.09562691     0.42564718
     0.16346154     0.13266395     0.42564718
     0.16346154     0.16970098     0.42564718
     0.16346154     0.20673802     0.42564718
     0.16346154     0.24377506     0.42564718
     0.16346154     0.28081209     0.42564718
     0.16346154     0.31784913     0.42564718
     0.16346154     0.35488617     0.42564718
     0.16346154     0.39192320     0.42564718
     0.16346154     0.42896024     0.42564718
     0.16346154     0.46599728     0.42564718
     0.16346154     0.50303432     0.42564718
     0.16346154     0.54007135     0.42564718
     0.16346154     0.57710839     0.42564718
     0.16346154     0.61414543     0.42564718
     0.16346154     0.65118246     0.42564718
     0.16346154     0.68821950     0.42564718
     0.16346154     0.72525654     0.42564718
     0.16346154     0.76229357     0.42564718
     0.16346154     0.79933061     0.42564718
     0.16346154     0.83636765     0.42564718
     0.16346154     0.87340469     0.42564718
     0.16346154     0.91044172     0.42564718
     0.16346154     0.94747876     0.42564718
     0.16346154     0.98451580     0.42564718
     0.18269231     0.02155283     0.42564718
     0.18269231     0.05858987     0.42564718
     0.18269231     0.09562691     0.42564718
     0.18269231     0.13266395     0.42564718
     0.18269231     0.16970098     0.42564718
     0.18269231     0.20673802     0.42564718
     0.18269231     0.24377506     0.42564718
     0.18269231     0.28081209     0.42564718
     0.18269231     0.31784913     0.42564718
     0.18269231     0.35488617     0.42564718
     0.18269231     0.39192320     0.42564718
     0.18269231     0.42896024     0.42564718
     0.18269231     0.46599728     0.42564718
     0.18269231     0.50303432     0.42564718
     0.18269231     0.54007135     0.42564718
     0.18269231     0.57710839     0.42564718
     0.18269231     0.61414543     0.42564718
     0.18269231     0.65118246     0.42564718
     0.18269231     0.68821950     0.42564718
     0.18269231     0.72525654     0.42564718
     0.18269231     0.76229357     0.42564718
     0.18269231     0.79933061     0.42564718
     0.18269231     0.83636765     0.42564718
     0.18269231     0.87340469     0.42564718
     0.18269231     0.91044172     0.42564718
     0.18269231     0.94747876     0.42564718
     0.18269231     0.98451580     0.42564718
     0.20192308     0.02155283     0.42564718
     0.20192308     0.05858987     0.42564718
     0.20192308     0.09562691     0.42564718
     0.20192308     0.13266395     0.42564718
     0.20192308     0.16970098     0.42564718
     0.20192308     0.20673802     0.42564718
     0.20192308     0.24377506     0.42564718
     0.20192308     0.28081209     0.42564718
     0.20192308     0.31784913     0.42564718
     0.20192308     0.35488617     0.42564718
     0.20192308     0.39192320     0.42564718
     0.20192308     0.42896024     0.42564718
     0.20192308     0.46599728     0.42564718
     0.20192308     0.50303432     0.42564718
     0.20192308     0.54007135     0.42564718
     0.20192308     0.57710839     0.42564718
     0.20192308     0.61414543     0.42564718
     0.20192308     0.65118246     0.42564718
     0.20192308     0.68821950     0.42564718
     0.20192308     0.72525654     0.42564718
     0.20192308     0.76229357     0.42564718
     0.20192308     0.79933061     0.42564718
     0.20192308     0.83636765     0.42564718
     0.20192308     0.87340469     0.42564718
     0.20192308     0.91044172     0.42564718
     0.20192308     0.94747876     0.42564718
     0.20192308     0.98451580     0.42564718
     0.22115385     0.02155283     0.42564718
     0.22115385     0.05858987     0.42564718
     0.22115385     0.09562691     0.42564718
     0.22115385     0.13266395     0.42564718
     0.22115385     0.16970098     0.42564718
     0.22115385     0.20673802     0.42564718
     0.22115385     0.24377506     0.42564718
     0.22115385     0.28081209     0.42564718
     0.22115385     0.31784913     0.42564718
     0.22115385     0.35488617     0.42564718
     0.22115385     0.39192320     0.42564718
     0.22115385     0.42896024     0.42564718
     0.22115385     0.46599728     0.42564718
     0.22115385     0.50303432     0.42564718
     0.22115385     0.54007135     0.42564718
     0.22115385     0.57710839     0.42564718
     0.22115385     0.61414543     0.42564718
     0.22115385     0.65118246     0.42564718
     0.22115385     0.68821950     0.42564718
     0.22115385     0.72525654     0.42564718
     0.22115385     0.76229357     0.42564718
     0.22115385     0.79933061     0.42564718
     0.22115385     0.83636765     0.42564718
     0.22115385     0.87340469     0.42564718
     0.22115385     0.91044172     0.42564718
     0.22115385     0.94747876     0.42564718
     0.22115385     0.98451580     0.42564718
     0.24038462     0.02155283     0.42564718
     0.24038462     0.05858987     0.42564718
     0.24038462     0.09562691     0.42564718
     0.24038462     0.13266395     0.42564718
     0.24038462     0.16970098     0.42564718
     0.24038462     0.20673802     0.42564718
     0.24038462     0.24377506     0.42564718
     0.24038462     0.28081209     0.42564718
     0.24038462     0.31784913     0.42564718
     0.24038462     0.35488617     0.42564718
     0.24038462     0.39192320     0.42564718
     0.24038462     0.42896024     0.42564718
     0.24038462     0.46599728     0.42564718
     0.24038462     0.50303432     0.42564718
     0.24038462     0.54007135     0.42564718
     0.24038462     0.57710839     0.42564718
     0.24038462     0.61414543     0.42564718
     0.24038462     0.65118246     0.42564718
     0.24038462     0.68821950     0.42564718
     0.24038462     0.72525654     0.42564718
     0.24038462     0.76229357     0.42564718
     0.24038462     0.79933061     0.42564718
     0.24038462     0.83636765     0.42564718
     0.24038462     0.87340469     0.42564718
     0.24038462     0.91044172     0.42564718
     0.24038462     0.94747876     0.42564718
     0.24038462     0.98451580     0.42564718
     0.25961538     0.02155283     0.42564718
     0.25961538     0.05858987     0.42564718
     0.25961538     0.09562691     0.42564718
     0.25961538     0.13266395     0.42564718
     0.25961538     0.16970098     0.42564718
     0.25961538     0.20673802     0.42564718
     0.25961538     0.24377506     0.42564718
     0.25961538     0.28081209     0.42564718
     0.25961538     0.31784913     0.42564718
     0.25961538     0.35488617     0.42564718
     0.25961538     0.39192320     0.42564718
     0.25961538     0.42896024     0.42564718
     0.25961538     0.46599728     0.42564718
     0.25961538     0.50303432     0.42564718
     0.25961538     0.54007135     0.42564718
     0.25961538     0.57710839     0.42564718
     0.25961538     0.61414543     0.42564718
     0.25961538     0.65118246     0.42564718
     0.25961538     0.68821950     0.42564718
     0.25961538     0.72525654     0.42564718
     0.25961538     0.76229357     0.42564718
     0.25961538     0.79933061     0.42564718
     0.25961538     0.83636765     0.42564718
     0.25961538     0.87340469     0.42564718
     0.25961538     0.91044172     0.42564718
     0.25961538     0.94747876     0.42564718
     0.25961538     0.98451580     0.42564718
     0.27884615     0.02155283     0.42564718
     0.27884615     0.05858987     0.42564718
     0.27884615     0.09562691     0.42564718
     0.27884615     0.13266395     0.42564718
     0.27884615     0.16970098     0.42564718
     0.27884615     0.20673802     0.42564718
     0.27884615     0.24377506     0.42564718
     0.27884615     0.28081209     0.42564718
     0.27884615     0.31784913     0.42564718
     0.27884615     0.35488617     0.42564718
     0.27884615     0.39192320     0.42564718
     0.27884615     0.42896024     0.42564718
     0.27884615     0.46599728     0.42564718
     0.27884615     0.50303432     0.42564718
     0.27884615     0.54007135     0.42564718
     0.27884615     0.57710839     0.42564718
     0.27884615     0.61414543     0.42564718
     0.27884615     0.65118246     0.42564718
     0.27884615     0.68821950     0.42564718
     0.27884615     0.72525654     0.42564718
     0.27884615     0.76229357     0.42564718
     0.27884615     0.79933061     0.42564718
     0.27884615     0.83636765     0.42564718
     0.27884615     0.87340469     0.42564718
     0.27884615     0.91044172     0.42564718
     0.27884615     0.94747876     0.42564718
     0.27884615     0.98451580     0.42564718
     0.29807692     0.02155283     0.42564718
     0.29807692     0.05858987     0.42564718
     0.29807692     0.09562691     0.42564718
     0.29807692     0.13266395     0.42564718
     0.29807692     0.16970098     0.42564718
     0.29807692     0.20673802     0.42564718
     0.29807692     0.24377506     0.42564718
     0.29807692     0.28081209     0.42564718
     0.29807692     0.31784913     0.42564718
     0.29807692     0.35488617     0.42564718
     0.29807692     0.39192320     0.42564718
     0.29807692     0.42896024     0.42564718
     0.29807692     0.46599728     0.42564718
     0.29807692     0.50303432     0.42564718
     0.29807692     0.54007135     0.42564718
     0.29807692     0.57710839     0.42564718
     0.29807692     0.61414543     0.42564718
     0.29807692     0.65118246     0.42564718
     0.29807692     0.68821950     0.42564718
     0.29807692     0.72525654     0.42564718
     0.29807692     0.76229357     0.42564718
     0.29807692     0.79933061     0.42564718
     0.29807692     0.83636765     0.42564718
     0.29807692     0.87340469     0.42564718
     0.29807692     0.91044172     0.42564718
     0.29807692     0.94747876     0.42564718
     0.29807692     0.98451580     0.42564718
     0.31730769     0.02155283     0.42564718
     0.31730769     0.05858987     0.42564718
     0.31730769     0.09562691     0.42564718
     0.31730769     0.13266395     0.42564718
     0.31730769     0.16970098     0.42564718
     0.31730769     0.20673802     0.42564718
     0.31730769     0.24377506     0.42564718
     0.31730769     0.28081209     0.42564718
     0.31730769     0.31784913     0.42564718
     0.31730769     0.35488617     0.42564718
     0.31730769     0.39192320     0.42564718
     0.31730769     0.42896024     0.42564718
     0.31730769     0.46599728     0.42564718
     0.31730769     0.50303432     0.42564718
     0.31730769     0.54007135     0.42564718
     0.31730769     0.57710839     0.42564718
     0.31730769     0.61414543     0.42564718
     0.31730769     0.65118246     0.42564718
     0.31730769     0.68821950     0.42564718
     0.31730769     0.72525654     0.42564718
     0.31730769     0.76229357     0.42564718
     0.31730769     0.79933061     0.42564718
     0.31730769     0.83636765     0.42564718
     0.31730769     0.87340469     0.42564718
     0.31730769     0.91044172     0.42564718
     0.31730769     0.94747876     0.42564718
     0.31730769     0.98451580     0.42564718
     0.33653846     0.02155283     0.42564718
     0.33653846     0.05858987     0.42564718
     0.33653846     0.09562691     0.42564718
     0.33653846     0.13266395     0.42564718
     0.33653846     0.16970098     0.42564718
     0.33653846     0.20673802     0.42564718
     0.33653846     0.24377506     0.42564718
     0.33653846     0.28081209     0.42564718
     0.33653846     0.31784913     0.42564718
     0.33653846     0.35488617     0.42564718
     0.33653846     0.39192320     0.42564718
     0.33653846     0.42896024     0.42564718
     0.33653846     0.46599728     0.42564718
     0.33653846     0.50303432     0.42564718
     0.33653846     0.54007135     0.42564718
     0.33653846     0.57710839     0.42564718
     0.33653846     0.61414543     0.42564718
     0.33653846     0.65118246     0.42564718
     0.33653846     0.68821950     0.42564718
     0.33653846     0.72525654     0.42564718
     0.33653846     0.76229357     0.42564718
     0.33653846     0.79933061     0.42564718
     0.33653846     0.83636765     0.42564718
     0.33653846     0.87340469     0.42564718
     0.33653846     0.91044172     0.42564718
     0.33653846     0.94747876     0.42564718
     0.33653846     0.98451580     0.42564718
     0.35576923     0.02155283     0.42564718
     0.35576923     0.05858987     0.42564718
     0.35576923     0.09562691     0.42564718
     0.35576923     0.13266395     0.42564718
     0.35576923     0.16970098     0.42564718
     0.35576923     0.20673802     0.42564718
     0.35576923     0.24377506     0.42564718
     0.35576923     0.28081209     0.42564718
     0.35576923     0.31784913     0.42564718
     0.35576923     0.35488617     0.42564718
     0.35576923     0.39192320     0.42564718
     0.35576923     0.42896024     0.42564718
     0.35576923     0.46599728     0.42564718
     0.35576923     0.50303432     0.42564718
     0.35576923     0.54007135     0.42564718
     0.35576923     0.57710839     0.42564718
     0.35576923     0.61414543     0.42564718
     0.35576923     0.65118246     0.42564718
     0.35576923     0.68821950     0.42564718
     0.35576923     0.72525654     0.42564718
     0.35576923     0.76229357     0.42564718
     0.35576923     0.79933061     0.42564718
     0.35576923     0.83636765     0.42564718
     0.35576923     0.87340469     0.42564718
     0.35576923     0.91044172     0.42564718
     0.35576923     0.94747876     0.42564718
     0.35576923     0.98451580     0.42564718
     0.37500000     0.02155283     0.42564718
     0.37500000     0.05858987     0.42564718
     0.37500000     0.09562691     0.42564718
     0.37500000     0.13266395     0.42564718
     0.37500000     0.16970098     0.42564718
     0.37500000     0.20673802     0.42564718
     0.37500000     0.24377506     0.42564718
     0.37500000     0.28081209     0.42564718
     0.37500000     0.31784913     0.42564718
     0.37500000     0.35488617     0.42564718
     0.37500000     0.39192320     0.42564718
     0.37500000     0.42896024     0.42564718
     0.37500000     0.46599728     0.42564718
     0.37500000     0.50303432     0.42564718
     0.37500000     0.54007135     0.42564718
     0.37500000     0.57710839     0.42564718
     0.37500000     0.61414543     0.42564718
     0.37500000     0.65118246     0.42564718
     0.37500000     0.68821950     0.42564718
     0.37500000     0.72525654     0.42564718
     0.37500000     0.76229357     0.42564718
     0.37500000     0.79933061     0.42564718
     0.37500000     0.83636765     0.42564718
     0.37500000     0.87340469     0.42564718
     0.37500000     0.91044172     0.42564718
     0.37500000     0.94747876     0.42564718
     0.37500000     0.98451580     0.42564718
     0.39423077     0.02155283     0.42564718
     0.39423077     0.05858987     0.42564718
     0.39423077     0.09562691     0.42564718
     0.39423077     0.13266395     0.42564718
     0.39423077     0.16970098     0.42564718
     0.39423077     0.20673802     0.42564718
     0.39423077     0.24377506     0.42564718
     0.39423077     0.28081209     0.42564718
     0.39423077     0.31784913     0.42564718
     0.39423077     0.35488617     0.42564718
     0.39423077     0.39192320     0.42564718
     0.39423077     0.42896024     0.42564718
     0.39423077     0.46599728     0.42564718
     0.39423077     0.50303432     0.42564718
     0.39423077     0.54007135     0.42564718
     0.39423077     0.57710839     0.42564718
     0.39423077     0.61414543     0.42564718
     0.39423077     0.65118246     0.42564718
     0.39423077     0.68821950     0.42564718
     0.39423077     0.72525654     0.42564718
     0.39423077     0.76229357     0.42564718
     0.39423077     0.79933061     0.42564718
     0.39423077     0.83636765     0.42564718
     0.39423077     0.87340469     0.42564718
     0.39423077     0.91044172     0.42564718
     0.39423077     0.94747876     0.42564718
     0.39423077     0.98451580     0.42564718
     0.41346154     0.02155283     0.42564718
     0.41346154     0.05858987     0.42564718
     0.41346154     0.09562691     0.42564718
     0.41346154     0.13266395     0.42564718
     0.41346154     0.16970098     0.42564718
     0.41346154     0.20673802     0.42564718
     0.41346154     0.24377506     0.42564718
     0.41346154     0.28081209     0.42564718
     0.41346154     0.31784913     0.42564718
     0.41346154     0.35488617     0.42564718
     0.41346154     0.39192320     0.42564718
     0.41346154     0.42896024     0.42564718
     0.41346154     0.46599728     0.42564718
     0.41346154     0.50303432     0.42564718
     0.41346154     0.54007135     0.42564718
     0.41346154     0.57710839     0.42564718
     0.41346154     0.61414543     0.42564718
     0.41346154     0.65118246     0.42564718
     0.41346154     0.68821950     0.42564718
     0.41346154     0.72525654     0.42564718
     0.41346154     0.76229357     0.42564718
     0.41346154     0.79933061     0.42564718
     0.41346154     0.83636765     0.42564718
     0.41346154     0.87340469     0.42564718
     0.41346154     0.91044172     0.42564718
     0.41346154     0.94747876     0.42564718
     0.41346154     0.98451580     0.42564718
     0.43269231     0.02155283     0.42564718
     0.43269231     0.05858987     0.42564718
     0.43269231     0.09562691     0.42564718
     0.43269231     0.13266395     0.42564718
     0.43269231     0.16970098     0.42564718
     0.43269231     0.20673802     0.42564718
     0.43269231     0.24377506     0.42564718
     0.43269231     0.28081209     0.42564718
     0.43269231     0.31784913     0.42564718
     0.43269231     0.35488617     0.42564718
     0.43269231     0.39192320     0.42564718
     0.43269231     0.42896024     0.42564718
     0.43269231     0.46599728     0.42564718
     0.43269231     0.50303432     0.42564718
     0.43269231     0.54007135     0.42564718
     0.43269231     0.57710839     0.42564718
     0.43269231     0.61414543     0.42564718
     0.43269231     0.65118246     0.42564718
     0.43269231     0.68821950     0.42564718
     0.43269231     0.72525654     0.42564718
     0.43269231     0.76229357     0.42564718
     0.43269231     0.79933061     0.42564718
     0.43269231     0.83636765     0.42564718
     0.43269231     0.87340469     0.42564718
     0.43269231     0.91044172     0.42564718
     0.43269231     0.94747876     0.42564718
     0.43269231     0.98451580     0.42564718
     0.45192308     0.02155283     0.42564718
     0.45192308     0.05858987     0.42564718
     0.45192308     0.09562691     0.42564718
     0.45192308     0.13266395     0.42564718
     0.45192308     0.16970098     0.42564718
     0.45192308     0.20673802     0.42564718
     0.45192308     0.24377506     0.42564718
     0.45192308     0.28081209     0.42564718
     0.45192308     0.31784913     0.42564718
     0.45192308     0.35488617     0.42564718
     0.45192308     0.39192320     0.42564718
     0.45192308     0.42896024     0.42564718
     0.45192308     0.46599728     0.42564718
     0.45192308     0.50303432     0.42564718
     0.45192308     0.54007135     0.42564718
     0.45192308     0.57710839     0.42564718
     0.45192308     0.61414543     0.42564718
     0.45192308     0.65118246     0.42564718
     0.45192308     0.68821950     0.42564718
     0.45192308     0.72525654     0.42564718
     0.45192308     0.76229357     0.42564718
     0.45192308     0.79933061     0.42564718
     0.45192308     0.83636765     0.42564718
     0.45192308     0.87340469     0.42564718
     0.45192308     0.91044172     0.42564718
     0.45192308     0.94747876     0.42564718