Generated by Twist2D
    1.0
     138.47398467       0.00000000       0.00000000
       0.00000000     101.90118556       0.00000000
       0.00000000       0.00000000      20.00000000
    P
    7732
Direct
     0.01190476     0.02530115     0.42564718
     0.01190476     0.06877941     0.42564718
     0.01190476     0.11225767     0.42564718
     0.01190476     0.15573594     0.42564718
     0.01190476     0.19921420     0.42564718
     0.01190476     0.24269246     0.42564718
     0.01190476     0.28617072     0.42564718
     0.01190476     0.32964898     0.42564718
     0.01190476     0.37312724     0.42564718
     0.01190476     0.41660550     0.42564718
     0.01190476     0.46008376     0.42564718
     0.01190476     0.50356202     0.42564718
     0.01190476     0.54704028     0.42564718
     0.01190476     0.59051854     0.42564718
     0.01190476     0.63399681     0.42564718
     0.01190476     0.67747507     0.42564718
     0.01190476     0.72095333     0.42564718
     0.01190476     0.76443159     0.42564718
     0.01190476     0.80790985     0.42564718
     0.01190476     0.85138811     0.42564718
     0.01190476     0.89486637     0.42564718
     0.01190476     0.93834463     0.42564718
     0.01190476     0.98182289     0.42564718
     0.03571429     0.02530115     0.42564718
     0.03571429     0.06877941     0.42564718
     0.03571429     0.11225767     0.42564718
     0.03571429     0.15573594     0.42564718
     0.03571429     0.19921420     0.42564718
     0.03571429     0.24269246     0.42564718
     0.03571429     0.28617072     0.42564718
     0.03571429     0.32964898     0.42564718
     0.03571429     0.37312724     0.42564718
     0.03571429     0.41660550     0.42564718
     0.03571429     0.46008376     0.42564718
     0.03571429     0.50356202     0.42564718
     0.03571429     0.54704028     0.42564718
     0.03571429     0.59051854     0.42564718
     0.03571429     0.63399681     0.42564718
     0.03571429     0.67747507     0.42564718
     0.03571429     0.72095333     0.42564718
     0.03571429     0.76443159     0.42564718
     0.03571429     0.80790985     0.42564718
     0.03571429     0.85138811     0.42564718
     0.03571429     0.89486637     0.42564718
     0.03571429     0.93834463     0.42564718
     0.03571429     0.98182289     0.42564718
     0.05952381     0.02530115     0.42564718
     0.05952381     0.06877941     0.42564718
     0.05952381     0.11225767     0.42564718
     0.05952381     0.15573594     0.42564718
     0.05952381     0.19921420     0.42564718
     0.05952381     0.24269246     0.42564718
     0.05952381     0.28617072     0.42564718
     0.05952381     0.32964898     0.42564718
     0.05952381     0.37312724     0.42564718
     0.05952381     0.41660550     0.42564718
     0.05952381     0.46008376     0.42564718
     0.05952381     0.50356202     0.42564718
     0.05952381     0.54704028     0.42564718
     0.05952381     0.59051854     0.42564718
     0.05952381     0.63399681     0.42564718
     0.05952381     0.67747507     0.42564718
     0.05952381     0.72095333     0.42564718
     0.05952381     0.76443159     0.42564718
     0.05952381     0.80790985     0.42564718
     0.05952381     0.85138811     0.42564718
     0.05952381     0.89486637     0.42564718
     0.05952381     0.93834463     0.42564718
     0.05952381     0.98182289     0.42564718
     0.08333333     0.02530115     0.42564718
     0.08333333     0.06877941     0.42564718
     0.08333333     0.11225767     0.42564718
     0.08333333     0.15573594     0.42564718
     0.08333333     0.19921420     0.42564718
     0.08333333     0.24269246     0.42564718
     0.08333333     0.28617072     0.42564718
     0.08333333     0.32964898     0.42564718
     0.08333333     0.37312724     0.42564718
     0.08333333     0.41660550     0.42564718
     0.08333333     0.46008376     0.42564718
     0.08333333     0.50356202     0.42564718
     0.08333333     0.54704028     0.42564718
     0.08333333     0.59051854     0.42564718
     0.08333333     0.63399681     0.42564718
     0.08333333     0.67747507     0.42564718
     0.08333333     0.72095333     0.42564718
     0.08333333     0.76443159     0.42564718
     0.08333333     0.80790985     0.42564718
     0.08333333     0.85138811     0.42564718
     0.08333333     0.89486637     0.42564718
     0.08333333     0.93834463     0.42564718
     0.08333333     0.98182289     0.42564718
     0.10714286     0.02530115     0.42564718
     0.10714286     0.06877941     0.42564718
     0.10714286     0.11225767     0.42564718
     0.10714286     0.15573594     0.42564718
     0.10714286     0.19921420     0.42564718
     0.10714286     0.24269246     0.42564718
     0.10714286     0.28617072     0.42564718
     0.10714286     0.32964898     0.42564718
     0.10714286     0.37312724     0.42564718
     0.10714286     0.41660550     0.42564718
     0.10714286     0.46008376     0.42564718
     0.10714286     0.50356202     0.42564718
     0.10714286     0.54704028     0.42564718
     0.10714286     0.59051854     0.42564718
     0.10714286     0.63399681     0.42564718
     0.10714286     0.67747507     0.42564718
     0.10714286     0.72095333     0.42564718
     0.10714286     0.76443159     0.42564718
     0.10714286     0.80790985     0.42564718
     0.10714286     0.85138811     0.42564718
     0.10714286     0.89486637     0.42564718
     0.10714286     0.93834463     0.42564718
     0.10714286     0.98182289     0.42564718
     0.13095238     0.02530115     0.42564718
     0.13095238     0.06877941     0.42564718
     0.13095238     0.11225767     0.42564718
     0.13095238     0.15573594     0.42564718
     0.13095238     0.19921420     0.42564718
     0.13095238     0.24269246     0.42564718
     0.13095238     0.28617072     0.42564718
     0.13095238     0.32964898     0.42564718
     0.13095238     0.37312724     0.42564718
     0.13095238     0.41660550     0.42564718
     0.13095238     0.46008376     0.42564718
     0.13095238     0.50356202     0.42564718
     0.13095238     0.54704028     0.42564718
     0.13095238     0.59051854     0.42564718
     0.13095238     0.63399681     0.42564718
     0.13095238     0.67747507     0.42564718
     0.13095238     0.72095333     0.42564718
     0.13095238     0.76443159     0.42564718
     0.13095238     0.80790985     0.42564718
     0.13095238     0.85138811     0.42564718
     0.13095238     0.89486637     0.42564718
     0.13095238     0.93834463     0.42564718
     0.13095238     0.98182289     0.42564718
     0.15476190     0.02530115     0.42564718
     0.15476190     0.06877941     0.42564718
     0.15476190     0.11225767     0.42564718
     0.15476190     0.15573594     0.42564718
     0.15476190     0.19921420     0.42564718
     0.15476190     0.24269246     0.42564718
     0.15476190     0.28617072     0.42564718
     0.15476190     0.32964898     0.42564718
     0.15476190     0.37312724     0.42564718
     0.15476190     0.41660550     0.42564718
     0.15476190     0.46008376     0.42564718
     0.15476190     0.50356202     0.42564718
     0.15476190     0.54704028     0.42564718
     0.15476190     0.59051854     0.42564718
     0.15476190     0.63399681     0.42564718
     0.15476190     0.67747507     0.42564718
     0.15476190     0.72095333     0.42564718
     0.15476190     0.76443159     0.42564718
     0.15476190     0.80790985     0.42564718
     0.15476190     0.85138811     0.42564718
     0.15476190     0.89486637     0.42564718
     0.15476190     0.93834463     0.42564718
     0.15476190     0.98182289     0.42564718
     0.17857143     0.02530115     0.42564718
     0.17857143     0.06877941     0.42564718
     0.17857143     0.11225767     0.42564718
     0.17857143     0.15573594     0.42564718
     0.17857143     0.19921420     0.42564718
     0.17857143     0.24269246     0.42564718
     0.17857143     0.28617072     0.42564718
     0.17857143     0.32964898     0.42564718
     0.17857143     0.37312724     0.42564718
     0.17857143     0.41660550     0.42564718
     0.17857143     0.46008376     0.42564718
     0.17857143     0.50356202     0.42564718
     0.17857143     0.54704028     0.42564718
     0.17857143     0.59051854     0.42564718
     0.17857143     0.63399681     0.42564718
     0.17857143     0.67747507     0.42564718
     0.17857143     0.72095333     0.42564718
     0.17857143     0.76443159     0.42564718
     0.17857143     0.80790985     0.42564718
     0.17857143     0.85138811     0.42564718
     0.17857143     0.89486637     0.42564718
     0.17857143     0.93834463     0.42564718
     0.17857143     0.98182289     0.42564718
     0.20238095     0.02530115     0.42564718
     0.20238095     0.06877941     0.42564718
     0.20238095     0.11225767     0.42564718
     0.20238095     0.15573594     0.42564718
     0.20238095     0.19921420     0.42564718
     0.20238095     0.24269246     0.42564718
     0.20238095     0.28617072     0.42564718
     0.20238095     0.32964898     0.42564718
     0.20238095     0.37312724     0.42564718
     0.20238095     0.41660550     0.42564718
     0.20238095     0.46008376     0.42564718
     0.20238095     0.50356202     0.42564718
     0.20238095     0.54704028     0.42564718
     0.20238095     0.59051854     0.42564718
     0.20238095     0.63399681     0.42564718
     0.20238095     0.67747507     0.42564718
     0.20238095     0.72095333     0.42564718
     0.20238095     0.76443159     0.42564718
     0.20238095     0.80790985     0.42564718
     0.20238095     0.85138811     0.42564718
     0.20238095     0.89486637     0.42564718
     0.20238095     0.93834463     0.42564718
     0.20238095     0.98182289     0.42564718
     0.22619048     0.02530115     0.42564718
     0.22619048     0.06877941     0.42564718
     0.22619048     0.11225767     0.42564718
     0.22619048     0.15573594     0.42564718
     0.22619048     0.19921420     0.42564718
     0.22619048     0.24269246     0.42564718
     0.22619048     0.28617072     0.42564718
     0.22619048     0.32964898     0.42564718
     0.22619048     0.37312724     0.42564718
     0.22619048     0.41660550     0.42564718
     0.22619048     0.46008376     0.42564718
     0.22619048     0.50356202     0.42564718
     0.22619048     0.54704028     0.42564718
     0.22619048     0.59051854     0.42564718
     0.22619048     0.63399681     0.42564718
     0.22619048     0.67747507     0.42564718
     0.22619048     0.72095333     0.42564718
     0.22619048     0.76443159     0.42564718
     0.22619048     0.80790985     0.42564718
     0.22619048     0.85138811     0.42564718
     0.22619048     0.89486637     0.42564718
     0.22619048     0.93834463     0.42564718
     0.22619048     0.98182289     0.42564718
     0.25000000     0.02530115     0.42564718
     0.25000000     0.06877941     0.42564718
     0.25000000     0.11225767     0.42564718
     0.25000000     0.15573594     0.42564718
     0.25000000     0.19921420     0.42564718
     0.25000000     0.24269246     0.42564718
     0.25000000     0.28617072     0.42564718
     0.25000000     0.32964898     0.42564718
     0.25000000     0.37312724     0.42564718
     0.25000000     0.41660550     0.42564718
     0.25000000     0.46008376     0.42564718
     0.25000000     0.50356202     0.42564718
     0.25000000     0.54704028     0.42564718
     0.25000000     0.59051854     0.42564718
     0.25000000     0.63399681     0.42564718
     0.25000000     0.67747507     0.42564718
     0.25000000     0.72095333     0.42564718
     0.25000000     0.76443159     0.42564718
     0.25000000     0.80790985     0.42564718
     0.25000000     0.85138811     0.42564718
     0.25000000     0.89486637     0.42564718
     0.25000000     0.93834463     0.42564718
     0.25000000     0.98182289     0.42564718
     0.27380952     0.02530115     0.42564718
     0.27380952     0.06877941     0.42564718
     0.27380952     0.11225767     0.42564718
     0.27380952     0.15573594     0.42564718
     0.27380952     0.19921420     0.42564718
     0.27380952     0.24269246     0.42564718
     0.27380952     0.28617072     0.42564718
     0.27380952     0.32964898     0.42564718
     0.27380952     0.37312724     0.42564718
     0.27380952     0.41660550     0.42564718
     0.27380952     0.46008376     0.42564718
     0.27380952     0.50356202     0.42564718
     0.27380952     0.54704028     0.42564718
     0.27380952     0.59051854     0.42564718
     0.27380952     0.63399681     0.42564718
     0.27380952     0.67747507     0.42564718
     0.27380952     0.72095333     0.42564718
     0.27380952     0.76443159     0.42564718
     0.27380952     0.80790985     0.42564718
     0.27380952     0.85138811     0.42564718
     0.27380952     0.89486637     0.42564718
     0.27380952     0.93834463     0.42564718
     0.27380952     0.98182289     0.42564718
     0.29761905     0.02530115     0.42564718
     0.29761905     0.06877941     0.42564718
     0.29761905     0.11225767     0.42564718
     0.29761905     0.15573594     0.42564718
     0.29761905     0.19921420     0.42564718
     0.29761905     0.24269246     0.42564718
     0.29761905     0.28617072     0.42564718
     0.29761905     0.32964898     0.42564718
     0.29761905     0.37312724     0.42564718
     0.29761905     0.41660550     0.42564718
     0.29761905     0.46008376     0.42564718
     0.29761905     0.50356202     0.42564718
     0.29761905     0.54704028     0.42564718
     0.29761905     0.59051854     0.42564718
     0.29761905     0.63399681     0.42564718
     0.29761905     0.67747507     0.42564718
     0.29761905     0.72095333     0.42564718
     0.29761905     0.76443159     0.42564718
     0.29761905     0.80790985     0.42564718
     0.29761905     0.85138811     0.42564718
     0.29761905     0.89486637     0.42564718
     0.29761905     0.93834463     0.42564718
     0.29761905     0.98182289     0.42564718
     0.32142857     0.02530115     0.42564718
     0.32142857     0.06877941     0.42564718
     0.32142857     0.11225767     0.42564718
     0.32142857     0.15573594     0.42564718
     0.32142857     0.19921420     0.42564718
     0.32142857     0.24269246     0.42564718
     0.32142857     0.28617072     0.42564718
     0.32142857     0.32964898     0.42564718
     0.32142857     0.37312724     0.42564718
     0.32142857     0.41660550     0.42564718
     0.32142857     0.46008376     0.42564718
     0.32142857     0.50356202     0.42564718
     0.32142857     0.54704028     0.42564718
     0.32142857     0.59051854     0.42564718
     0.32142857     0.63399681     0.42564718
     0.32142857     0.67747507     0.42564718
     0.32142857     0.72095333     0.42564718
     0.32142857     0.76443159     0.42564718
     0.32142857     0.80790985     0.42564718
     0.32142857     0.85138811     0.42564718
     0.32142857     0.89486637     0.42564718
     0.32142857     0.93834463     0.42564718
     0.32142857     0.98182289     0.42564718
     0.34523810     0.02530115     0.42564718
     0.34523810     0.06877941     0.42564718
     0.34523810     0.11225767     0.42564718
     0.34523810     0.15573594     0.42564718
     0.34523810     0.19921420     0.42564718
     0.34523810     0.24269246     0.42564718
     0.34523810     0.28617072     0.42564718
     0.34523810     0.32964898     0.42564718
     0.34523810     0.37312724     0.42564718
     0.34523810     0.41660550     0.42564718
     0.34523810     0.46008376     0.42564718
     0.34523810     0.50356202     0.42564718
     0.34523810     0.54704028     0.42564718
     0.34523810     0.59051854     0.42564718
     0.34523810     0.63399681     0.42564718
     0.34523810     0.67747507     0.42564718
     0.34523810     0.72095333     0.42564718
     0.34523810     0.76443159     0.42564718
     0.34523810     0.80790985     0.42564718
     0.34523810     0.85138811     0.42564718
     0.34523810     0.89486637     0.42564718
     0.34523810     0.93834463     0.42564718
     0.34523810     0.98182289     0.42564718
     0.36904762     0.02530115     0.42564718
     0.36904762     0.06877941     0.42564718
     0.36904762     0.11225767     0.42564718
     0.36904762     0.15573594     0.42564718
     0.36904762     0.19921420     0.42564718
     0.36904762     0.24269246     0.42564718
     0.36904762     0.28617072     0.42564718
     0.36904762     0.32964898     0.42564718
     0.36904762     0.37312724     0.42564718
     0.36904762     0.41660550     0.42564718
     0.36904762     0.46008376     0.42564718
     0.36904762     0.50356202     0.42564718
     0.36904762     0.54704028     0.42564718
     0.36904762     0.59051854     0.42564718
     0.36904762     0.63399681     0.42564718
     0.36904762     0.67747507     0.42564718
     0.36904762     0.72095333     0.42564718
     0.36904762     0.76443159     0.42564718
     0.36904762     0.80790985     0.42564718
     0.36904762     0.85138811     0.42564718
     0.36904762     0.89486637     0.42564718
     0.36904762     0.93834463     0.42564718
     0.36904762     0.98182289     0.42564718
     0.39285714     0.02530115     0.42564718
     0.39285714     0.06877941     0.42564718
     0.39285714     0.11225767     0.42564718
     0.39285714     0.15573594     0.42564718
     0.39285714     0.19921420     0.42564718
     0.39285714     0.24269246     0.42564718
     0.39285714     0.28617072     0.42564718
     0.39285714     0.32964898     0.42564718
     0.39285714     0.37312724     0.42564718
     0.39285714     0.41660550     0.42564718
     0.39285714     0.46008376     0.42564718
     0.39285714     0.50356202     0.42564718
     0.39285714     0.54704028     0.42564718
     0.39285714     0.59051854     0.42564718
     0.39285714     0.63399681     0.42564718
     0.39285714     0.67747507     0.42564718
     0.39285714     0.72095333     0.42564718
     0.39285714     0.76443159     0.42564718
     0.39285714     0.80790985     0.42564718
     0.39285714     0.85138811     0.42564718
     0.39285714     0.89486637     0.42564718
     0.39285714     0.93834463     0.42564718
     0.39285714     0.98182289     0.42564718
     0.41666667     0.02530115     0.42564718
     0.41666667     0.06877941     0.42564718
     0.41666667     0.11225767     0.42564718
     0.41666667     0.15573594     0.42564718
     0.41666667     0.19921420     0.42564718
     0.41666667     0.24269246     0.42564718
     0.41666667     0.28617072     0.42564718
     0.41666667     0.32964898     0.42564718
     0.41666667     0.37312724     0.42564718
     0.41666667     0.41660550     0.42564718
     0.41666667     0.46008376     0.42564718
     0.41666667     0.50356202     0.42564718
     0.41666667     0.54704028     0.42564718
     0.41666667     0.59051854     0.42564718
     0.41666667     0.63399681     0.42564718
     0.41666667     0.67747507     0.42564718
     0.41666667     0.72095333     0.42564718
     0.41666667     0.76443159     0.42564718
     0.41666667     0.80790985     0.42564718
     0.41666667     0.85138811     0.42564718
     0.41666667     0.89486637     0.42564718
     0.41666667     0.93834463     0.42564718
     0.41666667     0.98182289     0.42564718
     0.44047619     0.02530115     0.42564718
     0.44047619     0.06877941     0.42564718
     0.44047619     0.11225767     0.42564718
     0.44047619     0.15573594     0.42564718
     0.44047619     0.19921420     0.42564718
     0.44047619     0.24269246     0.42564718
     0.44047619     0.28617072     0.42564718
     0.44047619     0.32964898     0.42564718
     0.44047619     0.37312724     0.42564718
     0.44047619     0.41660550     0.42564718
     0.44047619     0.46008376     0.42564718
     0.44047619     0.50356202     0.42564718
     0.44047619     0.54704028     0.42564718
     0.44047619     0.59051854     0.42564718
     0.44047619     0.63399681     0.42564718
     0.44047619     0.67747507     0.42564718
     0.44047619     0.72095333     0.42564718
     0.44047619     0.76443159     0.42564718
     0.44047619     0.80790985     0.42564718
     0.44047619     0.85138811     0.42564718
     0.44047619     0.89486637     0.42564718
     0.44047619     0.93834463     0.42564718
     0.44047619     0.98182289     0.42564718
     0.46428571     0.02530115     0.42564718
     0.46428571     0.06877941     0.42564718
     0.46428571     0.11225767     0.42564718
     0.46428571     0.15573594     0.42564718
     0.46428571     0.19921420     0.42564718
     0.46428571     0.24269246     0.42564718
     0.46428571     0.28617072     0.42564718
     0.46428571     0.32964898     0.42564718
     0.46428571     0.37312724     0.42564718
     0.46428571     0.41660550     0.42564718
     0.46428571     0.46008376     0.42564718
     0.46428571     0.50356202     0.42564718
     0.46428571     0.54704028     0.42564718
     0.46428571     0.59051854     0.42564718
     0.46428571     0.63399681     0.42564718
     0.46428571     0.67747507     0.42564718
     0.46428571     0.72095333     0.42564718
     0.46428571     0.76443159     0.42564718
     0.46428571     0.80790985     0.42564718
     0.46428571     0.85138811     0.42564718
     0.46428571     0.89486637     0.42564718
     0.46428571     0.93834463     0.42564718
     0.46428571     0.98182289     0.42564718
     0.48809524     0.02530115     0.42564718
     0.48809524     0.06877941     0.42564718
     0.48809524     0.11225767     0.42564718
     0.48809524     0.15573594     0.42564718
     0.48809524     0.19921420     0.42564718
     0.48809524     0.24269246     0.42564718
     0.48809524     0.28617072     0.42564718
     0.48809524     0.32964898     0.42564718
     0.48809524     0.37312724     0.42564718
     0.48809524     0.41660550     0.42564718
     0.48809524     0.46008376     0.42564718
     0.48809524     0.50356202     0.42564718
     0.48809524     0.54704028     0.42564718
     0.48809524     0.59051854     0.42564718
     0.48809524     0.63399681     0.42564718
     0.48809524     0.67747507     0.42564718
     0.48809524     0.72095333     0.42564718
     0.48809524     0.76443159     0.42564718
     0.48809524     0.80790985     0.42564718
     0.48809524     0.85138811     0.42564718
     0.48809524     0.89486637     0.42564718
     0.48809524     0.93834463     0.42564718
     0.48809524     0.98182289     0.42564718
     0.51190476     0.02530115     0.42564718
     0.51190476     0.06877941     0.42564718
     0.51190476     0.11225767     0.42564718
     0.51190476     0.15573594     0.42564718
     0.51190476     0.19921420     0.42564718
     0.51190476     0.24269246     0.42564718
     0.51190476     0.28617072     0.42564718
     0.51190476     0.32964898     0.42564718
     0.51190476     0.37312724     0.42564718
     0.51190476     0.41660550     0.42564718
     0.51190476     0.46008376     0.42564718
     0.51190476     0.50356202     0.42564718
     0.51190476     0.54704028     0.42564718
     0.51190476     0.59051854     0.42564718
     0.51190476     0.63399681     0.42564718
     0.51190476     0.67747507     0.42564718
     0.51190476     0.72095333     0.42564718
     0.51190476     0.76443159     0.42564718
     0.51190476     0.80790985     0.42564718
     0.51190476     0.85138811     0.42564718
     0.51190476     0.89486637     0.42564718
     0.51190476     0.93834463     0.42564718
     0.51190476     0.98182289     0.42564718
     0.53571429     0.02530115     0.42564718
     0.53571429     0.06877941     0.42564718
     0.53571429     0.11225767     0.42564718
     0.53571429     0.15573594     0.42564718
     0.53571429     0.19921420     0.42564718
     0.53571429     0.24269246     0.42564718
     0.53571429     0.28617072     0.42564718
     0.53571429     0.32964898     0.42564718
     0.53571429     0.37312724     0.42564718
     0.53571429     0.41660550     0.42564718
     0.53571429     0.46008376     0.42564718
     0.53571429     0.50356202     0.42564718
     0.53571429     0.54704028     0.42564718
     0.53571429     0.59051854     0.42564718
     0.53571429     0.63399681     0.42564718
     0.53571429     0.67747507     0.42564718
     0.53571429     0.72095333     0.42564718
     0.53571429     0.76443159     0.42564718
     0.53571429     0.80790985     0.42564718
     0.53571429     0.85138811     0.42564718
     0.53571429     0.89486637     0.42564718
     0.53571429     0.93834463     0.42564718
     0.53571429     0.98182289     0.42564718
     0.55952381     0.02530115     0.42564718
     0.55952381     0.06877941     0.42564718
     0.55952381     0.11225767     0.42564718
     0.55952381     0.15573594     0.42564718
     0.55952381     0.19921420     0.42564718
     0.55952381     0.24269246     0.42564718
     0.55952381     0.28617072     0.42564718
     0.55952381     0.32964898     0.42564718
     0.55952381     0.37312724     0.42564718
     0.55952381     0.41660550     0.42564718
     0.55952381     0.46008376     0.42564718
     0.55952381     0.50356202     0.42564718
     0.55952381     0.54704028     0.42564718
     0.55952381     0.59051854     0.42564718
     0.55952381     0.63399681     0.42564718
     0.55952381     0.67747507     0.42564718
     0.55952381     0.72095333     0.42564718
     0.55952381     0.76443159     0.42564718
     0.55952381     0.80790985     0.42564718
     0.55952381     0.85138811     0.42564718
     0.55952381     0.89486637     0.42564718
     0.55952381     0.93834463     0.42564718
     0.55952381     0.98182289     0.42564718
     0.58333333     0.02530115     0.42564718
     0.58333333     0.06877941     0.42564718
     0.58333333     0.11225767     0.42564718
     0.58333333     0.15573594     0.42564718
     0.58333333     0.19921420     0.42564718
     0.58333333     0.24269246     0.42564718
     0.58333333     0.28617072     0.42564718
     0.58333333     0.32964898     0.42564718
     0.58333333     0.37312724     0.42564718
     0.58333333     0.41660550     0.42564718
     0.58333333     0.46008376     0.42564718
     0.58333333     0.50356202     0.42564718
     0.58333333     0.54704028     0.42564718
     0.58333333     0.59051854     0.42564718
     0.58333333     0.63399681     0.42564718
     0.58333333     0.67747507     0.42564718
     0.58333333     0.72095333     0.42564718
     0.58333333     0.76443159     0.42564718
     0.58333333     0.80790985     0.42564718
     0.58333333     0.85138811     0.42564718
     0.58333333     0.89486637     0.42564718
     0.58333333     0.93834463     0.42564718
     0.58333333     0.98182289     0.42564718
     0.60714286     0.02530115     0.42564718
     0.60714286     0.06877941     0.42564718
     0.60714286     0.11225767     0.42564718
     0.60714286     0.15573594     0.42564718
     0.60714286     0.19921420     0.42564718
     0.60714286     0.24269246     0.42564718
     0.60714286     0.28617072     0.42564718
     0.60714286     0.32964898     0.42564718
     0.60714286     0.37312724     0.42564718
     0.60714286     0.41660550     0.42564718
     0.60714286     0.46008376     0.42564718
     0.60714286     0.50356202     0.42564718
     0.60714286     0.54704028     0.42564718
     0.60714286     0.59051854     0.42564718
     0.60714286     0.63399681     0.42564718
     0.60714286     0.67747507     0.42564718
     0.60714286     0.72095333     0.42564718
     0.60714286     0.76443159     0.42564718
     0.60714286     0.80790985     0.42564718
     0.60714286     0.85138811     0.42564718
     0.60714286     0.89486637     0.42564718
     0.60714286     0.93834463     0.42564718
     0.60714286     0.98182289     0.42564718
     0.63095238     0.02530115     0.42564718
     0.63095238     0.06877941     0.42564718
     0.63095238     0.11225767     0.42564718
     0.63095238     0.15573594     0.42564718
     0.63095238     0.19921420     0.42564718
     0.63095238     0.24269246     0.42564718
     0.63095238     0.28617072     0.42564718
     0.63095238     0.32964898     0.42564718
     0.63095238     0.37312724     0.42564718
     0.63095238     0.41660550     0.42564718
     0.63095238     0.46008376     0.42564718
     0.63095238     0.50356202     0.42564718
     0.63095238     0.54704028     0.42564718
     0.63095238     0.59051854     0.42564718
     0.63095238     0.63399681     0.42564718
     0.63095238     0.67747507     0.42564718
     0.63095238     0.72095333     0.42564718
     0.63095238     0.76443159     0.42564718
     0.63095238     0.80790985     0.42564718
     0.63095238     0.85138811     0.42564718
     0.63095238     0.89486637     0.42564718
     0.63095238     0.93834463     0.42564718
     0.63095238     0.98182289     0.42564718
     0.65476190     0.02530115     0.42564718
     0.65476190     0.06877941     0.42564718
     0.65476190     0.11225767     0.42564718
     0.65476190     0.15573594     0.42564718
     0.65476190     0.19921420     0.42564718
     0.65476190     0.24269246     0.42564718
     0.65476190     0.28617072     0.42564718
     0.65476190     0.32964898     0.42564718
     0.65476190     0.37312724     0.42564718
     0.65476190     0.41660550     0.42564718
     0.65476190     0.46008376     0.42564718
     0.65476190     0.50356202     0.42564718
     0.65476190     0.54704028     0.42564718
     0.65476190     0.59051854     0.42564718
     0.65476190     0.63399681     0.42564718
     0.65476190     0.67747507     0.42564718
     0.65476190     0.72095333     0.42564718
     0.65476190     0.76443159     0.42564718
     0.65476190     0.80790985     0.42564718
     0.65476190     0.85138811     0.42564718
     0.65476190     0.89486637     0.42564718
     0.65476190     0.93834463     0.42564718
     0.65476190     0.98182289     0.42564718
     0.67857143     0.02530115     0.42564718
     0.67857143     0.06877941     0.42564718
     0.67857143     0.11225767     0.42564718