Generated by Twist2D
    1.0
     161.55298211       0.00000000       0.00000000
       0.00000000     119.62313088       0.00000000
       0.00000000       0.00000000      20.00000000
    P
    10588
Direct
     0.01020408     0.02155283     0.42564718
     0.01020408     0.05858987     0.42564718
     0.01020408     0.09562691     0.42564718
     0.01020408     0.13266395     0.42564718
     0.01020408     0.16970098     0.42564718
     0.01020408     0.20673802     0.42564718
     0.01020408     0.24377506     0.42564718
     0.01020408     0.28081209     0.42564718
     0.01020408     0.31784913     0.42564718
     0.01020408     0.35488617     0.42564718
     0.01020408     0.39192320     0.42564718
     0.01020408     0.42896024     0.42564718
     0.01020408     0.46599728     0.42564718
     0.01020408     0.50303432     0.42564718
     0.01020408     0.54007135     0.42564718
     0.01020408     0.57710839     0.42564718
     0.01020408     0.61414543     0.42564718
     0.01020408     0.65118246     0.42564718
     0.01020408     0.68821950     0.42564718
     0.01020408     0.72525654     0.42564718
     0.01020408     0.76229357     0.42564718
     0.01020408     0.79933061     0.42564718
     0.01020408     0.83636765     0.42564718
     0.01020408     0.87340469     0.42564718
     0.01020408     0.91044172     0.42564718
     0.01020408     0.94747876     0.42564718
     0.01020408     0.98451580     0.42564718
     0.03061224     0.02155283     0.42564718
     0.03061224     0.05858987     0.42564718
     0.03061224     0.09562691     0.42564718
     0.03061224     0.13266395     0.42564718
     0.03061224     0.16970098     0.42564718
     0.03061224     0.20673802     0.42564718
     0.03061224     0.24377506     0.42564718
     0.03061224     0.28081209     0.42564718
     0.03061224     0.31784913     0.42564718
     0.03061224     0.35488617     0.42564718
     0.03061224     0.39192320     0.42564718
     0.03061224     0.42896024     0.42564718
     0.03061224     0.46599728     0.42564718
     0.03061224     0.50303432     0.42564718
     0.03061224     0.54007135     0.42564718
     0.03061224     0.57710839     0.42564718
     0.03061224     0.61414543     0.42564718
     0.03061224     0.65118246     0.42564718
     0.03061224     0.68821950     0.42564718
     0.03061224     0.72525654     0.42564718
     0.03061224     0.76229357     0.42564718
     0.03061224     0.79933061     0.42564718
     0.03061224     0.83636765     0.42564718
     0.03061224     0.87340469     0.42564718
     0.03061224     0.91044172     0.42564718
     0.03061224     0.94747876     0.42564718
     0.03061224     0.98451580     0.42564718
     0.05102041     0.02155283     0.42564718
     0.05102041     0.05858987     0.42564718
     0.05102041     0.09562691     0.42564718
     0.05102041     0.13266395     0.42564718
     0.05102041     0.16970098     0.42564718
     0.05102041     0.20673802     0.42564718
     0.05102041     0.24377506     0.42564718
     0.05102041     0.28081209     0.42564718
     0.05102041     0.31784913     0.42564718
     0.05102041     0.35488617     0.42564718
     0.05102041     0.39192320     0.42564718
     0.05102041     0.42896024     0.42564718
     0.05102041     0.46599728     0.42564718
     0.05102041     0.50303432     0.42564718
     0.05102041     0.54007135     0.42564718
     0.05102041     0.57710839     0.42564718
     0.05102041     0.61414543     0.42564718
     0.05102041     0.65118246     0.42564718
     0.05102041     0.68821950     0.42564718
     0.05102041     0.72525654     0.42564718
     0.05102041     0.76229357     0.42564718
     0.05102041     0.79933061     0.42564718
     0.05102041     0.83636765     0.42564718
     0.05102041     0.87340469     0.42564718
     0.05102041     0.91044172     0.42564718
     0.05102041     0.94747876     0.42564718
     0.05102041     0.98451580     0.42564718
     0.07142857     0.02155283     0.42564718
     0.07142857     0.05858987     0.42564718
     0.07142857     0.09562691     0.42564718
     0.07142857     0.13266395     0.42564718
     0.07142857     0.16970098     0.42564718
     0.07142857     0.20673802     0.42564718
     0.07142857     0.24377506     0.42564718
     0.07142857     0.28081209     0.42564718
     0.07142857     0.31784913     0.42564718
     0.07142857     0.35488617     0.42564718
     0.07142857     0.39192320     0.42564718
     0.07142857     0.42896024     0.42564718
     0.07142857     0.46599728     0.42564718
     0.07142857     0.50303432     0.42564718
     0.07142857     0.54007135     0.42564718
     0.07142857     0.57710839     0.42564718
     0.07142857     0.61414543     0.42564718
     0.07142857     0.65118246     0.42564718
     0.07142857     0.68821950     0.42564718
     0.07142857     0.72525654     0.42564718
     0.07142857     0.76229357     0.42564718
     0.07142857     0.79933061     0.42564718
     0.07142857     0.83636765     0.42564718
     0.07142857     0.87340469     0.42564718
     0.07142857     0.91044172     0.42564718
     0.07142857     0.94747876     0.42564718
     0.07142857     0.98451580     0.42564718
     0.09183673     0.02155283     0.42564718
     0.09183673     0.05858987     0.42564718
     0.09183673     0.09562691     0.42564718
     0.09183673     0.13266395     0.42564718
     0.09183673     0.16970098     0.42564718
     0.09183673     0.20673802     0.42564718
     0.09183673     0.24377506     0.42564718
     0.09183673     0.28081209     0.42564718
     0.09183673     0.31784913     0.42564718
     0.09183673     0.35488617     0.42564718
     0.09183673     0.39192320     0.42564718
     0.09183673     0.42896024     0.42564718
     0.09183673     0.46599728     0.42564718
     0.09183673     0.50303432     0.42564718
     0.09183673     0.54007135     0.42564718
     0.09183673     0.57710839     0.42564718
     0.09183673     0.61414543     0.42564718
     0.09183673     0.65118246     0.42564718
     0.09183673     0.68821950     0.42564718
     0.09183673     0.72525654     0.42564718
     0.09183673     0.76229357     0.42564718
     0.09183673     0.79933061     0.42564718
     0.09183673     0.83636765     0.42564718
     0.09183673     0.87340469     0.42564718
     0.09183673     0.91044172     0.42564718
     0.09183673     0.94747876     0.42564718
     0.09183673     0.98451580     0.42564718
     0.11224490     0.02155283     0.42564718
     0.11224490     0.05858987     0.42564718
     0.11224490     0.09562691     0.42564718
     0.11224490     0.13266395     0.42564718
     0.11224490     0.16970098     0.42564718
     0.11224490     0.20673802     0.42564718
     0.11224490     0.24377506     0.42564718
     0.11224490     0.28081209     0.42564718
     0.11224490     0.31784913     0.42564718
     0.11224490     0.35488617     0.42564718
     0.11224490     0.39192320     0.42564718
     0.11224490     0.42896024     0.42564718
     0.11224490     0.46599728     0.42564718
     0.11224490     0.50303432     0.42564718
     0.11224490     0.54007135     0.42564718
     0.11224490     0.57710839     0.42564718
     0.11224490     0.61414543     0.42564718
     0.11224490     0.65118246     0.42564718
     0.11224490     0.68821950     0.42564718
     0.11224490     0.72525654     0.42564718
     0.11224490     0.76229357     0.42564718
     0.11224490     0.79933061     0.42564718
     0.11224490     0.83636765     0.42564718
     0.11224490     0.87340469     0.42564718
     0.11224490     0.91044172     0.42564718
     0.11224490     0.94747876     0.42564718
     0.11224490     0.98451580     0.42564718
     0.13265306     0.02155283     0.42564718
     0.13265306     0.05858987     0.42564718
     0.13265306     0.09562691     0.42564718
     0.13265306     0.13266395     0.42564718
     0.13265306     0.16970098     0.42564718
     0.13265306     0.20673802     0.42564718
     0.13265306     0.24377506     0.42564718
     0.13265306     0.28081209     0.42564718
     0.13265306     0.31784913     0.42564718
     0.13265306     0.35488617     0.42564718
     0.13265306     0.39192320     0.42564718
     0.13265306     0.42896024     0.42564718
     0.13265306     0.46599728     0.42564718
     0.13265306     0.50303432     0.42564718
     0.13265306     0.54007135     0.42564718
     0.13265306     0.57710839     0.42564718
     0.13265306     0.61414543     0.42564718
     0.13265306     0.65118246     0.42564718
     0.13265306     0.68821950     0.42564718
     0.13265306     0.72525654     0.42564718
     0.13265306     0.76229357     0.42564718
     0.13265306     0.79933061     0.42564718
     0.13265306     0.83636765     0.42564718
     0.13265306     0.87340469     0.42564718
     0.13265306     0.91044172     0.42564718
     0.13265306     0.94747876     0.42564718
     0.13265306     0.98451580     0.42564718
     0.15306122     0.02155283     0.42564718
     0.15306122     0.05858987     0.42564718
     0.15306122     0.09562691     0.42564718
     0.15306122     0.13266395     0.42564718
     0.15306122     0.16970098     0.42564718
     0.15306122     0.20673802     0.42564718
     0.15306122     0.24377506     0.42564718
     0.15306122     0.28081209     0.42564718
     0.15306122     0.31784913     0.42564718
     0.15306122     0.35488617     0.42564718
     0.15306122     0.39192320     0.42564718
     0.15306122     0.42896024     0.42564718
     0.15306122     0.46599728     0.42564718
     0.15306122     0.50303432     0.42564718
     0.15306122     0.54007135     0.42564718
     0.15306122     0.57710839     0.42564718
     0.15306122     0.61414543     0.42564718
     0.15306122     0.65118246     0.42564718
     0.15306122     0.68821950     0.42564718
     0.15306122     0.72525654     0.42564718
     0.15306122     0.76229357     0.42564718
     0.15306122     0.79933061     0.42564718
     0.15306122     0.83636765     0.42564718
     0.15306122     0.87340469     0.42564718
     0.15306122     0.91044172     0.42564718
     0.15306122     0.94747876     0.42564718
     0.15306122     0.98451580     0.42564718
     0.17346939     0.02155283     0.42564718
     0.17346939     0.05858987     0.42564718
     0.17346939     0.09562691     0.42564718
     0.17346939     0.13266395     0.42564718
     0.17346939     0.16970098     0.42564718
     0.17346939     0.20673802     0.42564718
     0.17346939     0.24377506     0.42564718
     0.17346939     0.28081209     0.42564718
     0.17346939     0.31784913     0.42564718
     0.17346939     0.35488617     0.42564718
     0.17346939     0.39192320     0.42564718
     0.17346939     0.42896024     0.42564718
     0.17346939     0.46599728     0.42564718
     0.17346939     0.50303432     0.42564718
     0.17346939     0.54007135     0.42564718
     0.17346939     0.57710839     0.42564718
     0.17346939     0.61414543     0.42564718
     0.17346939     0.65118246     0.42564718
     0.17346939     0.68821950     0.42564718
     0.17346939     0.72525654     0.42564718
     0.17346939     0.76229357     0.42564718
     0.17346939     0.79933061     0.42564718
     0.17346939     0.83636765     0.42564718
     0.17346939     0.87340469     0.42564718
     0.17346939     0.91044172     0.42564718
     0.17346939     0.94747876     0.42564718
     0.17346939     0.98451580     0.42564718
     0.19387755     0.02155283     0.42564718
     0.19387755     0.05858987     0.42564718
     0.19387755     0.09562691     0.42564718
     0.19387755     0.13266395     0.42564718
     0.19387755     0.16970098     0.42564718
     0.19387755     0.20673802     0.42564718
     0.19387755     0.24377506     0.42564718
     0.19387755     0.28081209     0.42564718
     0.19387755     0.31784913     0.42564718
     0.19387755     0.35488617     0.42564718
     0.19387755     0.39192320     0.42564718
     0.19387755     0.42896024     0.42564718
     0.19387755     0.46599728     0.42564718
     0.19387755     0.50303432     0.42564718
     0.19387755     0.54007135     0.42564718
     0.19387755     0.57710839     0.42564718
     0.19387755     0.61414543     0.42564718
     0.19387755     0.65118246     0.42564718
     0.19387755     0.68821950     0.42564718
     0.19387755     0.72525654     0.42564718
     0.19387755     0.76229357     0.42564718
     0.19387755     0.79933061     0.42564718
     0.19387755     0.83636765     0.42564718
     0.19387755     0.87340469     0.42564718
     0.19387755     0.91044172     0.42564718
     0.19387755     0.94747876     0.42564718
     0.19387755     0.98451580     0.42564718
     0.21428571     0.02155283     0.42564718
     0.21428571     0.05858987     0.42564718
     0.21428571     0.09562691     0.42564718
     0.21428571     0.13266395     0.42564718
     0.21428571     0.16970098     0.42564718
     0.21428571     0.20673802     0.42564718
     0.21428571     0.24377506     0.42564718
     0.21428571     0.28081209     0.42564718
     0.21428571     0.31784913     0.42564718
     0.21428571     0.35488617     0.42564718
     0.21428571     0.39192320     0.42564718
     0.21428571     0.42896024     0.42564718
     0.21428571     0.46599728     0.42564718
     0.21428571     0.50303432     0.42564718
     0.21428571     0.54007135     0.42564718
     0.21428571     0.57710839     0.42564718
     0.21428571     0.61414543     0.42564718
     0.21428571     0.65118246     0.42564718
     0.21428571     0.68821950     0.42564718
     0.21428571     0.72525654     0.42564718
     0.21428571     0.76229357     0.42564718
     0.21428571     0.79933061     0.42564718
     0.21428571     0.83636765     0.42564718
     0.21428571     0.87340469     0.42564718
     0.21428571     0.91044172     0.42564718
     0.21428571     0.94747876     0.42564718
     0.21428571     0.98451580     0.42564718
     0.23469388     0.02155283     0.42564718
     0.23469388     0.05858987     0.42564718
     0.23469388     0.09562691     0.42564718
     0.23469388     0.13266395     0.42564718
     0.23469388     0.16970098     0.42564718
     0.23469388     0.20673802     0.42564718
     0.23469388     0.24377506     0.42564718
     0.23469388     0.28081209     0.42564718
     0.23469388     0.31784913     0.42564718
     0.23469388     0.35488617     0.42564718
     0.23469388     0.39192320     0.42564718
     0.23469388     0.42896024     0.42564718
     0.23469388     0.46599728     0.42564718
     0.23469388     0.50303432     0.42564718
     0.23469388     0.54007135     0.42564718
     0.23469388     0.57710839     0.42564718
     0.23469388     0.61414543     0.42564718
     0.23469388     0.65118246     0.42564718
     0.23469388     0.68821950     0.42564718
     0.23469388     0.72525654     0.42564718
     0.23469388     0.76229357     0.42564718
     0.23469388     0.79933061     0.42564718
     0.23469388     0.83636765     0.42564718
     0.23469388     0.87340469     0.42564718
     0.23469388     0.91044172     0.42564718
     0.23469388     0.94747876     0.42564718
     0.23469388     0.98451580     0.42564718
     0.25510204     0.02155283     0.42564718
     0.25510204     0.05858987     0.42564718
     0.25510204     0.09562691     0.42564718
     0.25510204     0.13266395     0.42564718
     0.25510204     0.16970098     0.42564718
     0.25510204     0.20673802     0.42564718
     0.25510204     0.24377506     0.42564718
     0.25510204     0.28081209     0.42564718
     0.25510204     0.31784913     0.42564718
     0.25510204     0.35488617     0.42564718
     0.25510204     0.39192320     0.42564718
     0.25510204     0.42896024     0.42564718
     0.25510204     0.46599728     0.42564718
     0.25510204     0.50303432     0.42564718
     0.25510204     0.54007135     0.42564718
     0.25510204     0.57710839     0.42564718
     0.25510204     0.61414543     0.42564718
     0.25510204     0.65118246     0.42564718
     0.25510204     0.68821950     0.42564718
     0.25510204     0.72525654     0.42564718
     0.25510204     0.76229357     0.42564718
     0.25510204     0.79933061     0.42564718
     0.25510204     0.83636765     0.42564718
     0.25510204     0.87340469     0.42564718
     0.25510204     0.91044172     0.42564718
     0.25510204     0.94747876     0.42564718
     0.25510204     0.98451580     0.42564718
     0.27551020     0.02155283     0.42564718
     0.27551020     0.05858987     0.42564718
     0.27551020     0.09562691     0.42564718
     0.27551020     0.13266395     0.42564718
     0.27551020     0.16970098     0.42564718
     0.27551020     0.20673802     0.42564718
     0.27551020     0.24377506     0.42564718
     0.27551020     0.28081209     0.42564718
     0.27551020     0.31784913     0.42564718
     0.27551020     0.35488617     0.42564718
     0.27551020     0.39192320     0.42564718
     0.27551020     0.42896024     0.42564718
     0.27551020     0.46599728     0.42564718
     0.27551020     0.50303432     0.42564718
     0.27551020     0.54007135     0.42564718
     0.27551020     0.57710839     0.42564718
     0.27551020     0.61414543     0.42564718
     0.27551020     0.65118246     0.42564718
     0.27551020     0.68821950     0.42564718
     0.27551020     0.72525654     0.42564718
     0.27551020     0.76229357     0.42564718
     0.27551020     0.79933061     0.42564718
     0.27551020     0.83636765     0.42564718
     0.27551020     0.87340469     0.42564718
     0.27551020     0.91044172     0.42564718
     0.27551020     0.94747876     0.42564718
     0.27551020     0.98451580     0.42564718
     0.29591837     0.02155283     0.42564718
     0.29591837     0.05858987     0.42564718
     0.29591837     0.09562691     0.42564718
     0.29591837     0.13266395     0.42564718
     0.29591837     0.16970098     0.42564718
     0.29591837     0.20673802     0.42564718
     0.29591837     0.24377506     0.42564718
     0.29591837     0.28081209     0.42564718
     0.29591837     0.31784913     0.42564718
     0.29591837     0.35488617     0.42564718
     0.29591837     0.39192320     0.42564718
     0.29591837     0.42896024     0.42564718
     0.29591837     0.46599728     0.42564718
     0.29591837     0.50303432     0.42564718
     0.29591837     0.54007135     0.42564718
     0.29591837     0.57710839     0.42564718
     0.29591837     0.61414543     0.42564718
     0.29591837     0.65118246     0.42564718
     0.29591837     0.68821950     0.42564718
     0.29591837     0.72525654     0.42564718
     0.29591837     0.76229357     0.42564718
     0.29591837     0.79933061     0.42564718
     0.29591837     0.83636765     0.42564718
     0.29591837     0.87340469     0.42564718
     0.29591837     0.91044172     0.42564718
     0.29591837     0.94747876     0.42564718
     0.29591837     0.98451580     0.42564718
     0.31632653     0.02155283     0.42564718
     0.31632653     0.05858987     0.42564718
     0.31632653     0.09562691     0.42564718
     0.31632653     0.13266395     0.42564718
     0.31632653     0.16970098     0.42564718
     0.31632653     0.20673802     0.42564718
     0.31632653     0.24377506     0.42564718
     0.31632653     0.28081209     0.42564718
     0.31632653     0.31784913     0.42564718
     0.31632653     0.35488617     0.42564718
     0.31632653     0.39192320     0.42564718
     0.31632653     0.42896024     0.42564718
     0.31632653     0.46599728     0.42564718
     0.31632653     0.50303432     0.42564718
     0.31632653     0.54007135     0.42564718
     0.31632653     0.57710839     0.42564718
     0.31632653     0.61414543     0.42564718
     0.31632653     0.65118246     0.42564718
     0.31632653     0.68821950     0.42564718
     0.31632653     0.72525654     0.42564718
     0.31632653     0.76229357     0.42564718
     0.31632653     0.79933061     0.42564718
     0.31632653     0.83636765     0.42564718
     0.31632653     0.87340469     0.42564718
     0.31632653     0.91044172     0.42564718
     0.31632653     0.94747876     0.42564718
     0.31632653     0.98451580     0.42564718
     0.33673469     0.02155283     0.42564718
     0.33673469     0.05858987     0.42564718
     0.33673469     0.09562691     0.42564718
     0.33673469     0.13266395     0.42564718
     0.33673469     0.16970098     0.42564718
     0.33673469     0.20673802     0.42564718
     0.33673469     0.24377506     0.42564718
     0.33673469     0.28081209     0.42564718
     0.33673469     0.31784913     0.42564718
     0.33673469     0.35488617     0.42564718
     0.33673469     0.39192320     0.42564718
     0.33673469     0.42896024     0.42564718
     0.33673469     0.46599728     0.42564718
     0.33673469     0.50303432     0.42564718
     0.33673469     0.54007135     0.42564718
     0.33673469     0.57710839     0.42564718
     0.33673469     0.61414543     0.42564718
     0.33673469     0.65118246     0.42564718
     0.33673469     0.68821950     0.42564718
     0.33673469     0.72525654     0.42564718
     0.33673469     0.76229357     0.42564718
     0.33673469     0.79933061     0.42564718
     0.33673469     0.83636765     0.42564718
     0.33673469     0.87340469     0.42564718
     0.33673469     0.91044172     0.42564718
     0.33673469     0.94747876     0.42564718
     0.33673469     0.98451580     0.42564718
     0.35714286     0.02155283     0.42564718
     0.35714286     0.05858987     0.42564718
     0.35714286     0.09562691     0.42564718
     0.35714286     0.13266395     0.42564718
     0.35714286     0.16970098     0.42564718
     0.35714286     0.20673802     0.42564718
     0.35714286     0.24377506     0.42564718
     0.35714286     0.28081209     0.42564718
     0.35714286     0.31784913     0.42564718
     0.35714286     0.35488617     0.42564718
     0.35714286     0.39192320     0.42564718
     0.35714286     0.42896024     0.42564718
     0.35714286     0.46599728     0.42564718
     0.35714286     0.50303432     0.42564718
     0.35714286     0.54007135     0.42564718
     0.35714286     0.57710839     0.42564718
     0.35714286     0.61414543     0.42564718
     0.35714286     0.65118246     0.42564718
     0.35714286     0.68821950     0.42564718
     0.35714286     0.72525654     0.42564718
     0.35714286     0.76229357     0.42564718
     0.35714286     0.79933061     0.42564718
     0.35714286     0.83636765     0.42564718
     0.35714286     0.87340469     0.42564718
     0.35714286     0.91044172     0.42564718
     0.35714286     0.94747876     0.42564718
     0.35714286     0.98451580     0.42564718
     0.37755102     0.02155283     0.42564718
     0.37755102     0.05858987     0.42564718
     0.37755102     0.09562691     0.42564718
     0.37755102     0.13266395     0.42564718
     0.37755102     0.16970098     0.42564718
     0.37755102     0.20673802     0.42564718
     0.37755102     0.24377506     0.42564718
     0.37755102     0.28081209     0.42564718
     0.37755102     0.31784913     0.42564718
     0.37755102     0.35488617     0.42564718
     0.37755102     0.39192320     0.42564718
     0.37755102     0.42896024     0.42564718
     0.37755102     0.46599728     0.42564718
     0.37755102     0.50303432     0.42564718
     0.37755102     0.54007135     0.42564718
     0.37755102     0.57710839     0.42564718
     0.37755102     0.61414543     0.42564718
     0.37755102     0.65118246     0.42564718
     0.37755102     0.68821950     0.42564718
     0.37755102     0.72525654     0.42564718
     0.37755102     0.76229357     0.42564718
     0.37755102     0.79933061     0.42564718
     0.37755102     0.83636765     0.42564718
     0.37755102     0.87340469     0.42564718
     0.37755102     0.91044172     0.42564718
     0.37755102     0.94747876     0.42564718
     0.37755102     0.98451580     0.42564718
     0.39795918     0.02155283     0.42564718
     0.39795918     0.05858987     0.42564718
     0.39795918     0.09562691     0.42564718
     0.39795918     0.13266395     0.42564718
     0.39795918     0.16970098     0.42564718
     0.39795918     0.20673802     0.42564718
     0.39795918     0.24377506     0.42564718
     0.39795918     0.28081209     0.42564718
     0.39795918     0.31784913     0.42564718
     0.39795918     0.35488617     0.42564718
     0.39795918     0.39192320     0.42564718
     0.39795918     0.42896024     0.42564718
     0.39795918     0.46599728     0.42564718
     0.39795918     0.50303432     0.42564718
     0.39795918     0.54007135     0.42564718
     0.39795918     0.57710839     0.42564718
     0.39795918     0.61414543     0.42564718
     0.39795918     0.65118246     0.42564718
     0.39795918     0.68821950     0.42564718
     0.39795918     0.72525654     0.42564718
     0.39795918     0.76229357     0.42564718
     0.39795918     0.79933061     0.42564718
     0.39795918     0.83636765     0.42564718
     0.39795918     0.87340469     0.42564718
     0.39795918     0.91044172     0.42564718
     0.39795918     0.94747876     0.42564718
     0.39795918     0.98451580     0.42564718
     0.41836735     0.02155283     0.42564718
     0.41836735     0.05858987     0.42564718
     0.41836735     0.09562691     0.42564718
     0.41836735     0.13266395     0.42564718
     0.41836735     0.16970098     0.42564718
     0.41836735     0.20673802     0.42564718
     0.41836735     0.24377506     0.42564718
     0.41836735     0.28081209     0.42564718
     0.41836735     0.31784913     0.42564718
     0.41836735     0.35488617     0.42564718
     0.41836735     0.39192320     0.42564718
     0.41836735     0.42896024     0.42564718
     0.41836735     0.46599728     0.42564718
     0.41836735     0.50303432     0.42564718
     0.41836735     0.54007135     0.42564718
     0.41836735     0.57710839     0.42564718
     0.41836735     0.61414543     0.42564718
     0.41836735     0.65118246     0.42564718
     0.41836735     0.68821950     0.42564718
     0.41836735     0.72525654     0.42564718
     0.41836735     0.76229357     0.42564718
     0.41836735     0.79933061     0.42564718
     0.41836735     0.83636765     0.42564718
     0.41836735     0.87340469     0.42564718
     0.41836735     0.91044172     0.42564718
     0.41836735     0.94747876     0.42564718
     0.41836735     0.98451580     0.42564718
     0.43877551     0.02155283     0.42564718
     0.43877551     0.05858987     0.42564718
     0.43877551     0.09562691     0.42564718
     0.43877551     0.13266395     0.42564718
     0.43877551     0.16970098     0.42564718
     0.43877551     0.20673802     0.42564718
     0.43877551     0.24377506     0.42564718
     0.43877551     0.28081209     0.42564718
     0.43877551     0.31784913     0.42564718
     0.43877551     0.35488617     0.42564718
     0.43877551     0.39192320     0.42564718
     0.43877551     0.42896024     0.42564718
     0.43877551     0.46599728     0.42564718
     0.43877551     0.50303432     0.42564718
     0.43877551     0.54007135     0.42564718
     0.43877551     0.57710839     0.42564718
     0.43877551     0.61414543     0.42564718
     0.43877551     0.65118246     0.42564718
     0.43877551     0.68821950     0.42564718
     0.43877551     0.72525654     0.42564718
     0.43877551     0.76229357     0.42564718
     0.43877551     0.79933061     0.42564718
     0.43877551     0.83636765     0.42564718
     0.43877551     0.87340469     0.42564718
     0.43877551     0.91044172     0.42564718
     0.43877551     0.94747876     0.42564718
     0.43877551     0.98451580     0.42564718
     0.45918367     0.02155283     0.42564718
     0.45918367     0.05858987     0.42564718
     0.45918367     0.09562691     0.42564718
     0.45918367     0.13266395     0.42564718
     0.45918367     0.16970098     0.42564718
     0.45918367     0.20673802     0.42564718
     0.45918367     0.24377506     0.42564718
     0.45918367     0.28081209     0.42564718
     0.45918367     0.31784913     0.42564718
     0.45918367     0.35488617     0.42564718
     0.45918367     0.39192320     0.42564718
     0.45918367     0.42896024     0.42564718
     0.45918367     0.46599728     0.42564718
     0.45918367     0.50303432     0.42564718
     0.45918367     0.54007135     0.42564718
     0.45918367     0.57710839     0.42564718
     0.45918367     0.61414543     0.42564718
     0.45918367     0.65118246     0.42564718
     0.45918367     0.68821950     0.42564718
     0.45918367     0.72525654     0.42564718
     0.45918367     0.76229357     0.42564718
     0.45918367     0.79933061     0.42564718
     0.45918367     0.83636765     0.42564718
     0.45918367     0.87340469     0.42564718
     0.45918367     0.91044172     0.42564718
     0.45918367     0.94747876     0.42564718
     0.45918367     0.98451580     0.42564718
     0.47959184     0.02155283     0.42564718
     0.47959184     0.05858987     0.42564718
     0.47959184     0.09562691     0.42564718
     0.47959184     0.13266395     0.42564718
     0.47959184     0.16970098     0.42564718
     0.47959184     0.20673802     0.42564718
     0.47959184     0.24377506     0.42564718
     0.47959184     0.28081209     0.42564718
     0.47959184     0.31784913     0.42564718
     0.47959184     0.35488617     0.42564718
     0.47959184     0.39192320     0.42564718
     0.47959184     0.42896024     0.42564718
     0.47959184     0.46599728     0.42564718
     0.47959184     0.50303432     0.42564718
     0.47959184     0.54007135     0.42564718
     0.47959184     0.57710839     0.42564718
     0.47959184     0.61414543     0.42564718
     0.47959184     0.65118246     0.42564718
     0.47959184     0.68821950     0.42564718
     0.47959184     0.72525654     0.42564718
     0.47959184     0.76229357     0.42564718
     0.47959184     0.79933061     0.42564718
     0.47959184     0.83636765     0.42564718
     0.47959184     0.87340469     0.42564718
     0.47959184     0.91044172     0.42564718
     0.47959184     0.94747876     0.42564718