Generated by Twist2D
    1.0
      14.60872800       6.32576400       0.00000000
       1.82609100      15.81441000       0.00000000
       0.00000000       0.00000000      25.00000000
    Hf  S
    38  76
Direct
     0.05263158     0.57894737     0.35741000
     0.15789474     0.73684211     0.35741000
     0.26315789     0.89473684     0.35741000
     0.00000000     0.00000000     0.35741000
     0.10526316     0.15789474     0.35741000
     0.21052632     0.31578947     0.35741000
     0.31578947     0.47368421     0.35741000
     0.42105263     0.63157895     0.35741000
     0.52631579     0.78947368     0.35741000
     0.63157895     0.94736842     0.35741000
     0.36842105     0.05263158     0.35741000
     0.47368421     0.21052632     0.35741000
     0.57894737     0.36842105     0.35741000
     0.68421053     0.52631579     0.35741000
     0.78947368     0.68421053     0.35741000
     0.89473684     0.84210526     0.35741000
     0.73684211     0.10526316     0.35741000
     0.84210526     0.26315789     0.35741000
     0.94736842     0.42105263     0.35741000
     0.10526316     0.73684211     0.59301100
     0.26315789     0.84210526     0.59301100
     0.42105263     0.94736842     0.59301100
     0.05263158     0.36842105     0.59301100
     0.21052632     0.47368421     0.59301100
     0.36842105     0.57894737     0.59301100
     0.52631579     0.68421053     0.59301100
     0.68421053     0.78947368     0.59301100
     0.84210526     0.89473684     0.59301100
     0.00000000     0.00000000     0.59301100
     0.15789474     0.10526316     0.59301100
     0.31578947     0.21052632     0.59301100
     0.47368421     0.31578947     0.59301100
     0.63157895     0.42105263     0.59301100
     0.78947368     0.52631579     0.59301100
     0.94736842     0.63157895     0.59301100
     0.57894737     0.05263158     0.59301100
     0.73684211     0.15789474     0.59301100
     0.89473684     0.26315789     0.59301100
     0.29824547     0.61403521     0.30000000
     0.40350863     0.77192995     0.30000000
     0.50877179     0.92982468     0.30000000
     0.24561389     0.03508784     0.30000000
     0.35087705     0.19298258     0.30000000
     0.45614021     0.35087732     0.30000000
     0.56140337     0.50877205     0.30000000
     0.66666653     0.66666679     0.30000000
     0.77192968     0.82456153     0.30000000
     0.87719284     0.98245626     0.30000000
     0.61403495     0.08771942     0.30000000
     0.71929811     0.24561416     0.30000000
     0.82456126     0.40350889     0.30000000
     0.92982442     0.56140363     0.30000000
     1.03508758     0.71929837     0.30000000
     1.14035074     0.87719311     0.30000000
     0.98245600     0.14035100     0.30000000
     1.08771916     0.29824574     0.30000000
     1.19298232     0.45614047     0.30000000
     0.17543874     0.59649111     0.41500200
     0.28070189     0.75438584     0.41500200
     0.38596505     0.91228058     0.41500200
     0.12280716     0.01754374     0.41500200
     0.22807032     0.17543847     0.41500200
     0.33333347     0.33333321     0.41500200
     0.43859663     0.49122795     0.41500200
     0.54385979     0.64912268     0.41500200
     0.64912295     0.80701742     0.41500200
     0.75438611     0.96491216     0.41500200
     0.49122821     0.07017532     0.41500200
     0.59649137     0.22807005     0.41500200
     0.70175453     0.38596479     0.41500200
     0.80701768     0.54385953     0.41500200
     0.91228084     0.70175426     0.41500200
     1.01754400     0.85964900     0.41500200
     0.85964926     0.12280689     0.41500200
     0.96491242     0.28070163     0.41500200
     1.07017558     0.43859637     0.41500200
     0.38596479     0.70175453     0.53542000
     0.54385953     0.80701768     0.53542000
     0.70175426     0.91228084     0.53542000
     0.33333321     0.33333347     0.53542000
     0.49122795     0.43859663     0.53542000
     0.64912268     0.54385979     0.53542000
     0.80701742     0.64912295     0.53542000
     0.96491216     0.75438611     0.53542000
     1.12280689     0.85964926     0.53542000
     0.28070163    -0.03508758     0.53542000
     0.43859637     0.07017558     0.53542000
     0.59649111     0.17543874     0.53542000
     0.75438584     0.28070189     0.53542000
     0.91228058     0.38596505     0.53542000
     1.07017532     0.49122821     0.53542000
     1.22807005     0.59649137     0.53542000
     0.85964900     0.01754400     0.53542000
     1.01754374     0.12280716     0.53542000
     1.17543847     0.22807032     0.53542000
     0.24561416     0.71929811     0.65042100
     0.40350889     0.82456126     0.65042100
     0.56140363     0.92982442     0.65042100
     0.19298258     0.35087705     0.65042100
     0.35087732     0.45614021     0.65042100
     0.50877205     0.56140337     0.65042100
     0.66666679     0.66666653     0.65042100
     0.82456153     0.77192968     0.65042100
     0.98245626     0.87719284     0.65042100
     0.14035100    -0.01754400     0.65042100
     0.29824574     0.08771916     0.65042100
     0.45614047     0.19298232     0.65042100
     0.61403521     0.29824547     0.65042100
     0.77192995     0.40350863     0.65042100
     0.92982468     0.50877179     0.65042100
     1.08771942     0.61403495     0.65042100
     0.71929837     0.03508758     0.65042100
     0.87719311     0.14035074     0.65042100
     1.03508784     0.24561389     0.65042100
