Generated by Twist2D
    1.0
     172.41996000      97.38267000       0.00000000
       1.87413000     198.01142900       0.00000000
       0.00000000       0.00000000      16.00000000
    Pt  Se
    5582  11164
Direct
     0.00035829     0.96703690     0.37427950
     0.01110713     0.97814403     0.37427950
     0.02185597     0.98925116     0.37427950
     0.00071659     0.93407381     0.37427950
     0.01146542     0.94518094     0.37427950
     0.02221426     0.95628807     0.37427950
     0.03296310     0.96739520     0.37427950
     0.04371193     0.97850233     0.37427950
     0.05446077     0.98960946     0.37427950
     0.00107488     0.90111071     0.37427950
     0.01182372     0.91221784     0.37427950
     0.02257255     0.92332497     0.37427950
     0.03332139     0.93443210     0.37427950
     0.04407023     0.94553923     0.37427950
     0.05481906     0.95664636     0.37427950
     0.06556790     0.96775349     0.37427950
     0.07631673     0.97886062     0.37427950
     0.08706557     0.98996775     0.37427950
     0.00143318     0.86814762     0.37427950
     0.01218201     0.87925475     0.37427950
     0.02293085     0.89036188     0.37427950
     0.03367968     0.90146901     0.37427950
     0.04442852     0.91257614     0.37427950
     0.05517736     0.92368327     0.37427950
     0.06592619     0.93479040     0.37427950
     0.07667503     0.94589753     0.37427950
     0.08742386     0.95700466     0.37427950
     0.09817270     0.96811179     0.37427950
     0.10892153     0.97921892     0.37427950
     0.11967037     0.99032605     0.37427950
     0.00179147     0.83518452     0.37427950
     0.01254031     0.84629165     0.37427950
     0.02328914     0.85739878     0.37427950
     0.03403798     0.86850591     0.37427950
     0.04478681     0.87961304     0.37427950
     0.05553565     0.89072017     0.37427950
     0.06628449     0.90182730     0.37427950
     0.07703332     0.91293443     0.37427950
     0.08778216     0.92404156     0.37427950
     0.09853099     0.93514869     0.37427950
     0.10927983     0.94625582     0.37427950
     0.12002866     0.95736295     0.37427950
     0.13077750     0.96847008     0.37427950
     0.14152633     0.97957721     0.37427950
     0.15227517     0.99068434     0.37427950
     0.00214977     0.80222143     0.37427950
     0.01289860     0.81332856     0.37427950
     0.02364744     0.82443569     0.37427950
     0.03439627     0.83554282     0.37427950
     0.04514511     0.84664995     0.37427950
     0.05589394     0.85775708     0.37427950
     0.06664278     0.86886421     0.37427950
     0.07739162     0.87997134     0.37427950
     0.08814045     0.89107847     0.37427950
     0.09888929     0.90218560     0.37427950
     0.10963812     0.91329273     0.37427950
     0.12038696     0.92439986     0.37427950
     0.13113579     0.93550699     0.37427950
     0.14188463     0.94661412     0.37427950
     0.15263346     0.95772125     0.37427950
     0.16338230     0.96882838     0.37427950
     0.17413114     0.97993551     0.37427950
     0.18487997     0.99104264     0.37427950
     0.00250806     0.76925833     0.37427950
     0.01325690     0.78036546     0.37427950
     0.02400573     0.79147259     0.37427950
     0.03475457     0.80257972     0.37427950
     0.04550340     0.81368685     0.37427950
     0.05625224     0.82479398     0.37427950
     0.06700107     0.83590111     0.37427950
     0.07774991     0.84700824     0.37427950
     0.08849875     0.85811537     0.37427950
     0.09924758     0.86922250     0.37427950
     0.10999642     0.88032963     0.37427950
     0.12074525     0.89143676     0.37427950
     0.13149409     0.90254389     0.37427950
     0.14224292     0.91365102     0.37427950
     0.15299176     0.92475815     0.37427950
     0.16374059     0.93586528     0.37427950
     0.17448943     0.94697241     0.37427950
     0.18523827     0.95807954     0.37427950
     0.19598710     0.96918667     0.37427950
     0.20673594     0.98029380     0.37427950
     0.21748477     0.99140093     0.37427950
     0.00286636     0.73629523     0.37427950
     0.01361519     0.74740236     0.37427950
     0.02436403     0.75850949     0.37427950
     0.03511286     0.76961662     0.37427950
     0.04586170     0.78072375     0.37427950
     0.05661053     0.79183088     0.37427950
     0.06735937     0.80293802     0.37427950
     0.07810820     0.81404515     0.37427950
     0.08885704     0.82515228     0.37427950
     0.09960588     0.83625941     0.37427950
     0.11035471     0.84736654     0.37427950
     0.12110355     0.85847367     0.37427950
     0.13185238     0.86958080     0.37427950
     0.14260122     0.88068793     0.37427950
     0.15335005     0.89179506     0.37427950
     0.16409889     0.90290219     0.37427950
     0.17484772     0.91400932     0.37427950
     0.18559656     0.92511645     0.37427950
     0.19634540     0.93622358     0.37427950
     0.20709423     0.94733071     0.37427950
     0.21784307     0.95843784     0.37427950
     0.22859190     0.96954497     0.37427950
     0.23934074     0.98065210     0.37427950
     0.25008957     0.99175923     0.37427950
     0.00322465     0.70333214     0.37427950
     0.01397349     0.71443927     0.37427950
     0.02472232     0.72554640     0.37427950
     0.03547116     0.73665353     0.37427950
     0.04621999     0.74776066     0.37427950
     0.05696883     0.75886779     0.37427950
     0.06771766     0.76997492     0.37427950
     0.07846650     0.78108205     0.37427950
     0.08921534     0.79218918     0.37427950
     0.09996417     0.80329631     0.37427950
     0.11071301     0.81440344     0.37427950
     0.12146184     0.82551057     0.37427950
     0.13221068     0.83661770     0.37427950
     0.14295951     0.84772483     0.37427950
     0.15370835     0.85883196     0.37427950
     0.16445718     0.86993909     0.37427950
     0.17520602     0.88104622     0.37427950
     0.18595485     0.89215335     0.37427950
     0.19670369     0.90326048     0.37427950
     0.20745253     0.91436761     0.37427950
     0.21820136     0.92547474     0.37427950
     0.22895020     0.93658187     0.37427950
     0.23969903     0.94768900     0.37427950
     0.25044787     0.95879613     0.37427950
     0.26119670     0.96990326     0.37427950
     0.27194554     0.98101039     0.37427950
     0.28269437     0.99211752     0.37427950
     0.00358295     0.67036904     0.37427950
     0.01433178     0.68147617     0.37427950
     0.02508062     0.69258330     0.37427950
     0.03582945     0.70369043     0.37427950
     0.04657829     0.71479756     0.37427950
     0.05732712     0.72590469     0.37427950
     0.06807596     0.73701182     0.37427950
     0.07882479     0.74811895     0.37427950
     0.08957363     0.75922608     0.37427950
     0.10032247     0.77033321     0.37427950
     0.11107130     0.78144034     0.37427950
     0.12182014     0.79254747     0.37427950
     0.13256897     0.80365460     0.37427950
     0.14331781     0.81476173     0.37427950
     0.15406664     0.82586886     0.37427950
     0.16481548     0.83697599     0.37427950
     0.17556431     0.84808312     0.37427950
     0.18631315     0.85919025     0.37427950
     0.19706198     0.87029738     0.37427950
     0.20781082     0.88140451     0.37427950
     0.21855966     0.89251164     0.37427950
     0.22930849     0.90361877     0.37427950
     0.24005733     0.91472590     0.37427950
     0.25080616     0.92583303     0.37427950
     0.26155500     0.93694016     0.37427950
     0.27230383     0.94804729     0.37427950
     0.28305267     0.95915442     0.37427950
     0.29380150     0.97026155     0.37427950
     0.30455034     0.98136869     0.37427950
     0.31529918     0.99247582     0.37427950
     0.00394124     0.63740595     0.37427950
     0.01469008     0.64851308     0.37427950
     0.02543891     0.65962021     0.37427950
     0.03618775     0.67072734     0.37427950
     0.04693658     0.68183447     0.37427950
     0.05768542     0.69294160     0.37427950
     0.06843425     0.70404873     0.37427950
     0.07918309     0.71515586     0.37427950
     0.08993192     0.72626299     0.37427950
     0.10068076     0.73737012     0.37427950
     0.11142960     0.74847725     0.37427950
     0.12217843     0.75958438     0.37427950
     0.13292727     0.77069151     0.37427950
     0.14367610     0.78179864     0.37427950
     0.15442494     0.79290577     0.37427950
     0.16517377     0.80401290     0.37427950
     0.17592261     0.81512003     0.37427950
     0.18667144     0.82622716     0.37427950
     0.19742028     0.83733429     0.37427950
     0.20816912     0.84844142     0.37427950
     0.21891795     0.85954855     0.37427950
     0.22966679     0.87065568     0.37427950
     0.24041562     0.88176281     0.37427950
     0.25116446     0.89286994     0.37427950
     0.26191329     0.90397707     0.37427950
     0.27266213     0.91508420     0.37427950
     0.28341096     0.92619133     0.37427950
     0.29415980     0.93729846     0.37427950
     0.30490863     0.94840559     0.37427950
     0.31565747     0.95951272     0.37427950
     0.32640631     0.97061985     0.37427950
     0.33715514     0.98172698     0.37427950
     0.34790398     0.99283411     0.37427950
     0.00429953     0.60444285     0.37427950
     0.01504837     0.61554998     0.37427950
     0.02579721     0.62665711     0.37427950
     0.03654604     0.63776424     0.37427950
     0.04729488     0.64887137     0.37427950
     0.05804371     0.65997850     0.37427950
     0.06879255     0.67108563     0.37427950
     0.07954138     0.68219276     0.37427950
     0.09029022     0.69329989     0.37427950
     0.10103905     0.70440702     0.37427950
     0.11178789     0.71551415     0.37427950
     0.12253673     0.72662128     0.37427950
     0.13328556     0.73772841     0.37427950
     0.14403440     0.74883554     0.37427950
     0.15478323     0.75994267     0.37427950
     0.16553207     0.77104980     0.37427950
     0.17628090     0.78215693     0.37427950
     0.18702974     0.79326406     0.37427950
     0.19777857     0.80437119     0.37427950
     0.20852741     0.81547832     0.37427950
     0.21927625     0.82658545     0.37427950
     0.23002508     0.83769258     0.37427950
     0.24077392     0.84879971     0.37427950
     0.25152275     0.85990684     0.37427950
     0.26227159     0.87101397     0.37427950
     0.27302042     0.88212110     0.37427950
     0.28376926     0.89322823     0.37427950
     0.29451809     0.90433536     0.37427950
     0.30526693     0.91544249     0.37427950
     0.31601576     0.92654962     0.37427950
     0.32676460     0.93765675     0.37427950
     0.33751344     0.94876388     0.37427950
     0.34826227     0.95987101     0.37427950
     0.35901111     0.97097814     0.37427950
     0.36975994     0.98208527     0.37427950
     0.38050878     0.99319240     0.37427950
     0.00465783     0.57147976     0.37427950
     0.01540666     0.58258689     0.37427950
     0.02615550     0.59369402     0.37427950
     0.03690434     0.60480115     0.37427950
     0.04765317     0.61590828     0.37427950
     0.05840201     0.62701541     0.37427950
     0.06915084     0.63812254     0.37427950
     0.07989968     0.64922967     0.37427950
     0.09064851     0.66033680     0.37427950
     0.10139735     0.67144393     0.37427950
     0.11214618     0.68255106     0.37427950
     0.12289502     0.69365819     0.37427950
     0.13364386     0.70476532     0.37427950
     0.14439269     0.71587245     0.37427950
     0.15514153     0.72697958     0.37427950
     0.16589036     0.73808671     0.37427950
     0.17663920     0.74919384     0.37427950
     0.18738803     0.76030097     0.37427950
     0.19813687     0.77140810     0.37427950
     0.20888570     0.78251523     0.37427950
     0.21963454     0.79362236     0.37427950
     0.23038338     0.80472949     0.37427950
     0.24113221     0.81583662     0.37427950
     0.25188105     0.82694375     0.37427950
     0.26262988     0.83805088     0.37427950
     0.27337872     0.84915801     0.37427950
     0.28412755     0.86026514     0.37427950
     0.29487639     0.87137227     0.37427950
     0.30562522     0.88247940     0.37427950
     0.31637406     0.89358653     0.37427950
     0.32712290     0.90469366     0.37427950
     0.33787173     0.91580079     0.37427950
     0.34862057     0.92690792     0.37427950
     0.35936940     0.93801505     0.37427950
     0.37011824     0.94912218     0.37427950
     0.38086707     0.96022931     0.37427950
     0.39161591     0.97133644     0.37427950
     0.40236474     0.98244357     0.37427950
     0.41311358     0.99355070     0.37427950
     0.00501612     0.53851666     0.37427950
     0.01576496     0.54962379     0.37427950
     0.02651379     0.56073092     0.37427950
     0.03726263     0.57183805     0.37427950
     0.04801147     0.58294518     0.37427950
     0.05876030     0.59405231     0.37427950
     0.06950914     0.60515944     0.37427950
     0.08025797     0.61626657     0.37427950
     0.09100681     0.62737370     0.37427950
     0.10175564     0.63848083     0.37427950
     0.11250448     0.64958796     0.37427950
     0.12325331     0.66069509     0.37427950
     0.13400215     0.67180222     0.37427950
     0.14475099     0.68290935     0.37427950
     0.15549982     0.69401648     0.37427950
     0.16624866     0.70512361     0.37427950
     0.17699749     0.71623074     0.37427950
     0.18774633     0.72733787     0.37427950
     0.19849516     0.73844500     0.37427950
     0.20924400     0.74955213     0.37427950
     0.21999283     0.76065926     0.37427950
     0.23074167     0.77176639     0.37427950
     0.24149051     0.78287352     0.37427950
     0.25223934     0.79398065     0.37427950
     0.26298818     0.80508778     0.37427950
     0.27373701     0.81619491     0.37427950
     0.28448585     0.82730204     0.37427950
     0.29523468     0.83840917     0.37427950
     0.30598352     0.84951630     0.37427950
     0.31673235     0.86062343     0.37427950
     0.32748119     0.87173056     0.37427950
     0.33823003     0.88283769     0.37427950
     0.34897886     0.89394482     0.37427950
     0.35972770     0.90505195     0.37427950
     0.37047653     0.91615908     0.37427950
     0.38122537     0.92726621     0.37427950
     0.39197420     0.93837334     0.37427950
     0.40272304     0.94948047     0.37427950
     0.41347187     0.96058760     0.37427950
     0.42422071     0.97169473     0.37427950
     0.43496954     0.98280186     0.37427950
     0.44571838     0.99390899     0.37427950
     0.00537442     0.50555357     0.37427950
     0.01612325     0.51666070     0.37427950
     0.02687209     0.52776783     0.37427950
     0.03762092     0.53887496     0.37427950
     0.04836976     0.54998209     0.37427950
     0.05911860     0.56108922     0.37427950
     0.06986743     0.57219635     0.37427950
     0.08061627     0.58330348     0.37427950
     0.09136510     0.59441061     0.37427950
     0.10211394     0.60551774     0.37427950
     0.11286277     0.61662487     0.37427950
     0.12361161     0.62773200     0.37427950
     0.13436044     0.63883913     0.37427950
     0.14510928     0.64994626     0.37427950
     0.15585812     0.66105339     0.37427950
     0.16660695     0.67216052     0.37427950
     0.17735579     0.68326765     0.37427950
     0.18810462     0.69437478     0.37427950
     0.19885346     0.70548191     0.37427950
     0.20960229     0.71658904     0.37427950
     0.22035113     0.72769617     0.37427950
     0.23109996     0.73880330     0.37427950
     0.24184880     0.74991043     0.37427950
     0.25259764     0.76101756     0.37427950
     0.26334647     0.77212469     0.37427950
     0.27409531     0.78323182     0.37427950
     0.28484414     0.79433895     0.37427950
     0.29559298     0.80544608     0.37427950
     0.30634181     0.81655321     0.37427950
     0.31709065     0.82766034     0.37427950
     0.32783948     0.83876747     0.37427950
     0.33858832     0.84987460     0.37427950
     0.34933716     0.86098173     0.37427950
     0.36008599     0.87208886     0.37427950
     0.37083483     0.88319599     0.37427950
     0.38158366     0.89430312     0.37427950
     0.39233250     0.90541025     0.37427950
     0.40308133     0.91651738     0.37427950
     0.41383017     0.92762451     0.37427950
     0.42457900     0.93873164     0.37427950
     0.43532784     0.94983877     0.37427950
     0.44607668     0.96094590     0.37427950
     0.45682551     0.97205303     0.37427950
     0.46757435     0.98316016     0.37427950
     0.47832318     0.99426729     0.37427950
     0.00573271     0.47259047     0.37427950
     0.01648155     0.48369760     0.37427950
     0.02723038     0.49480473     0.37427950
     0.03797922     0.50591186     0.37427950
     0.04872805     0.51701899     0.37427950
     0.05947689     0.52812612     0.37427950
     0.07022573     0.53923325     0.37427950
     0.08097456     0.55034038     0.37427950
     0.09172340     0.56144751     0.37427950
     0.10247223     0.57255464     0.37427950
     0.11322107     0.58366177     0.37427950
     0.12396990     0.59476890     0.37427950
     0.13471874     0.60587603     0.37427950
     0.14546757     0.61698316     0.37427950
     0.15621641     0.62809029     0.37427950
     0.16696525     0.63919742     0.37427950
     0.17771408     0.65030455     0.37427950
     0.18846292     0.66141168     0.37427950
     0.19921175     0.67251881     0.37427950
     0.20996059     0.68362594     0.37427950
     0.22070942     0.69473307     0.37427950
     0.23145826     0.70584020     0.37427950
     0.24220709     0.71694733     0.37427950
     0.25295593     0.72805446     0.37427950
     0.26370477     0.73916159     0.37427950
     0.27445360     0.75026872     0.37427950
     0.28520244     0.76137585     0.37427950
     0.29595127     0.77248298     0.37427950
     0.30670011     0.78359011     0.37427950
     0.31744894     0.79469724     0.37427950
     0.32819778     0.80580437     0.37427950
     0.33894661     0.81691150     0.37427950
     0.34969545     0.82801863     0.37427950
     0.36044429     0.83912576     0.37427950
     0.37119312     0.85023289     0.37427950
     0.38194196     0.86134002     0.37427950
     0.39269079     0.87244715     0.37427950
     0.40343963     0.88355428     0.37427950
     0.41418846     0.89466141     0.37427950
     0.42493730     0.90576854     0.37427950
     0.43568613     0.91687567     0.37427950
     0.44643497     0.92798280     0.37427950
     0.45718381     0.93908993     0.37427950
     0.46793264     0.95019706     0.37427950
     0.47868148     0.96130419     0.37427950
     0.48943031     0.97241132     0.37427950
     0.50017915     0.98351845     0.37427950
     0.51092798     0.99462558     0.37427950
     0.00609101     0.43962737     0.37427950
     0.01683984     0.45073450     0.37427950
     0.02758868     0.46184163     0.37427950
     0.03833751     0.47294876     0.37427950
     0.04908635     0.48405589     0.37427950
     0.05983518     0.49516302     0.37427950
     0.07058402     0.50627015     0.37427950
     0.08133286     0.51737728     0.37427950
     0.09208169     0.52848441     0.37427950
     0.10283053     0.53959154     0.37427950
     0.11357936     0.55069867     0.37427950
     0.12432820     0.56180580     0.37427950
     0.13507703     0.57291293     0.37427950
     0.14582587     0.58402006     0.37427950
     0.15657470     0.59512719     0.37427950
     0.16732354     0.60623432     0.37427950
     0.17807238     0.61734145     0.37427950
     0.18882121     0.62844858     0.37427950
     0.19957005     0.63955571     0.37427950
     0.21031888     0.65066284     0.37427950
     0.22106772     0.66176997     0.37427950
     0.23181655     0.67287710     0.37427950
     0.24256539     0.68398424     0.37427950
     0.25331422     0.69509137     0.37427950
     0.26406306     0.70619850     0.37427950
     0.27481190     0.71730563     0.37427950
     0.28556073     0.72841276     0.37427950
     0.29630957     0.73951989     0.37427950
     0.30705840     0.75062702     0.37427950
     0.31780724     0.76173415     0.37427950
     0.32855607     0.77284128     0.37427950
     0.33930491     0.78394841     0.37427950
     0.35005374     0.79505554     0.37427950
     0.36080258     0.80616267     0.37427950
     0.37155142     0.81726980     0.37427950
     0.38230025     0.82837693     0.37427950
     0.39304909     0.83948406     0.37427950
     0.40379792     0.85059119     0.37427950
     0.41454676     0.86169832     0.37427950
     0.42529559     0.87280545     0.37427950
     0.43604443     0.88391258     0.37427950
     0.44679326     0.89501971     0.37427950
     0.45754210     0.90612684     0.37427950
     0.46829094     0.91723397     0.37427950
     0.47903977     0.92834110     0.37427950
     0.48978861     0.93944823     0.37427950
     0.50053744     0.95055536     0.37427950
     0.51128628     0.96166249     0.37427950
     0.52203511     0.97276962     0.37427950
     0.53278395     0.98387675     0.37427950
     0.54353278     0.99498388     0.37427950
     0.00644930     0.40666428     0.37427950
     0.01719814     0.41777141     0.37427950
     0.02794697     0.42887854     0.37427950
     0.03869581     0.43998567     0.37427950
     0.04944464     0.45109280     0.37427950
     0.06019348     0.46219993     0.37427950
     0.07094231     0.47330706     0.37427950
     0.08169115     0.48441419     0.37427950
     0.09243999     0.49552132     0.37427950
     0.10318882     0.50662845     0.37427950
     0.11393766     0.51773558     0.37427950
     0.12468649     0.52884271     0.37427950
     0.13543533     0.53994984     0.37427950
     0.14618416     0.55105697     0.37427950
     0.15693300     0.56216410     0.37427950
     0.16768183     0.57327123     0.37427950
     0.17843067     0.58437836     0.37427950
     0.18917951     0.59548549     0.37427950
     0.19992834     0.60659262     0.37427950
     0.21067718     0.61769975     0.37427950
     0.22142601     0.62880688     0.37427950
     0.23217485     0.63991401     0.37427950
     0.24292368     0.65102114     0.37427950
     0.25367252     0.66212827     0.37427950
     0.26442135     0.67323540     0.37427950
     0.27517019     0.68434253     0.37427950
     0.28591903     0.69544966     0.37427950
     0.29666786     0.70655679     0.37427950
     0.30741670     0.71766392     0.37427950
     0.31816553     0.72877105     0.37427950
     0.32891437     0.73987818     0.37427950
     0.33966320     0.75098531     0.37427950
     0.35041204     0.76209244     0.37427950
     0.36116087     0.77319957     0.37427950
     0.37190971     0.78430670     0.37427950
     0.38265855     0.79541383     0.37427950
     0.39340738     0.80652096     0.37427950
     0.40415622     0.81762809     0.37427950
     0.41490505     0.82873522     0.37427950
     0.42565389     0.83984235     0.37427950
     0.43640272     0.85094948     0.37427950
     0.44715156     0.86205661     0.37427950
     0.45790039     0.87316374     0.37427950
     0.46864923     0.88427087     0.37427950
     0.47939807     0.89537800     0.37427950
     0.49014690     0.90648513     0.37427950
     0.50089574     0.91759226     0.37427950
     0.51164457     0.92869939     0.37427950
     0.52239341     0.93980652     0.37427950
     0.53314224     0.95091365     0.37427950
     0.54389108     0.96202078     0.37427950
     0.55463991     0.97312791     0.37427950
     0.56538875     0.98423504     0.37427950
     0.57613759     0.99534217     0.37427950
     0.00680760     0.37370118     0.37427950
     0.01755643     0.38480831     0.37427950
     0.02830527     0.39591544     0.37427950
     0.03905410     0.40702257     0.37427950
     0.04980294     0.41812970     0.37427950
     0.06055177     0.42923683     0.37427950
     0.07130061     0.44034396     0.37427950
     0.08204944     0.45145109     0.37427950
     0.09279828     0.46255822     0.37427950
     0.10354712     0.47366535     0.37427950
     0.11429595     0.48477248     0.37427950
     0.12504479     0.49587961     0.37427950
     0.13579362     0.50698674     0.37427950
     0.14654246     0.51809387     0.37427950
     0.15729129     0.52920100     0.37427950
     0.16804013     0.54030813     0.37427950
     0.17878896     0.55141526     0.37427950
     0.18953780     0.56252239     0.37427950
     0.20028664     0.57362952     0.37427950
     0.21103547     0.58473665     0.37427950
     0.22178431     0.59584378     0.37427950
     0.23253314     0.60695091     0.37427950
     0.24328198     0.61805804     0.37427950
     0.25403081     0.62916517     0.37427950
     0.26477965     0.64027230     0.37427950
     0.27552848     0.65137943     0.37427950
     0.28627732     0.66248656     0.37427950
     0.29702616     0.67359369     0.37427950
     0.30777499     0.68470082     0.37427950
     0.31852383     0.69580795     0.37427950
     0.32927266     0.70691508     0.37427950
     0.34002150     0.71802221     0.37427950
     0.35077033     0.72912934     0.37427950
     0.36151917     0.74023647     0.37427950
     0.37226800     0.75134360     0.37427950
     0.38301684     0.76245073     0.37427950
     0.39376568     0.77355786     0.37427950
     0.40451451     0.78466499     0.37427950
     0.41526335     0.79577212     0.37427950
     0.42601218     0.80687925     0.37427950
     0.43676102     0.81798638     0.37427950
     0.44750985     0.82909351     0.37427950
     0.45825869     0.84020064     0.37427950
     0.46900752     0.85130777     0.37427950
     0.47975636     0.86241491     0.37427950
     0.49050520     0.87352204     0.37427950
     0.50125403     0.88462917     0.37427950
     0.51200287     0.89573630     0.37427950
     0.52275170     0.90684343     0.37427950
     0.53350054     0.91795056     0.37427950
     0.54424937     0.92905769     0.37427950
     0.55499821     0.94016482     0.37427950
     0.56574704     0.95127195     0.37427950
     0.57649588     0.96237908     0.37427950
     0.58724472     0.97348621     0.37427950
     0.59799355     0.98459334     0.37427950
     0.60874239     0.99570047     0.37427950
     0.00716589     0.34073809     0.37427950
     0.01791473     0.35184522     0.37427950
     0.02866356     0.36295235     0.37427950
     0.03941240     0.37405948     0.37427950
     0.05016123     0.38516661     0.37427950
     0.06091007     0.39627374     0.37427950
     0.07165890     0.40738087     0.37427950
     0.08240774     0.41848800     0.37427950
     0.09315657     0.42959513     0.37427950
     0.10390541     0.44070226     0.37427950
     0.11465425     0.45180939     0.37427950
     0.12540308     0.46291652     0.37427950
     0.13615192     0.47402365     0.37427950
     0.14690075     0.48513078     0.37427950
     0.15764959     0.49623791     0.37427950
     0.16839842     0.50734504     0.37427950
     0.17914726     0.51845217     0.37427950
     0.18989609     0.52955930     0.37427950
     0.20064493     0.54066643     0.37427950
     0.21139377     0.55177356     0.37427950
     0.22214260     0.56288069     0.37427950
     0.23289144     0.57398782     0.37427950
     0.24364027     0.58509495     0.37427950
     0.25438911     0.59620208     0.37427950
     0.26513794     0.60730921     0.37427950
     0.27588678     0.61841634     0.37427950
     0.28663561     0.62952347     0.37427950
     0.29738445     0.64063060     0.37427950
     0.30813329     0.65173773     0.37427950
     0.31888212     0.66284486     0.37427950
     0.32963096     0.67395199     0.37427950
     0.34037979     0.68505912     0.37427950
     0.35112863     0.69616625     0.37427950
     0.36187746     0.70727338     0.37427950
     0.37262630     0.71838051     0.37427950
     0.38337513     0.72948764     0.37427950
     0.39412397     0.74059477     0.37427950
     0.40487281     0.75170190     0.37427950
     0.41562164     0.76280903     0.37427950
     0.42637048     0.77391616     0.37427950
     0.43711931     0.78502329     0.37427950
     0.44786815     0.79613042     0.37427950
     0.45861698     0.80723755     0.37427950
     0.46936582     0.81834468     0.37427950
     0.48011465     0.82945181     0.37427950
     0.49086349     0.84055894     0.37427950
     0.50161233     0.85166607     0.37427950
     0.51236116     0.86277320     0.37427950
     0.52311000     0.87388033     0.37427950
     0.53385883     0.88498746     0.37427950
     0.54460767     0.89609459     0.37427950
     0.55535650     0.90720172     0.37427950
     0.56610534     0.91830885     0.37427950
     0.57685417     0.92941598     0.37427950
     0.58760301     0.94052311     0.37427950
     0.59835185     0.95163024     0.37427950
     0.60910068     0.96273737     0.37427950
     0.61984952     0.97384450     0.37427950
     0.63059835     0.98495163     0.37427950
     0.64134719     0.99605876     0.37427950
     0.00752418     0.30777499     0.37427950
     0.01827302     0.31888212     0.37427950
     0.02902186     0.32998925     0.37427950
     0.03977069     0.34109638     0.37427950
     0.05051953     0.35220351     0.37427950
     0.06126836     0.36331064     0.37427950
     0.07201720     0.37441777     0.37427950
     0.08276603     0.38552490     0.37427950
     0.09351487     0.39663203     0.37427950
     0.10426370     0.40773916     0.37427950
     0.11501254     0.41884629     0.37427950
     0.12576138     0.42995342     0.37427950
     0.13651021     0.44106055     0.37427950
     0.14725905     0.45216768     0.37427950
     0.15800788     0.46327481     0.37427950
     0.16875672     0.47438194     0.37427950
     0.17950555     0.48548907     0.37427950