Generated by Twist2D
    1.0
     116.19606000      64.92178000       0.00000000
       1.87413000     133.08964900       0.00000000
       0.00000000       0.00000000      16.00000000
    Pt  Se
    2522  5044
Direct
     0.00079302     0.95083267     0.37427950
     0.01665345     0.96748612     0.37427950
     0.03251388     0.98413957     0.37427950
     0.00158604     0.90166534     0.37427950
     0.01744647     0.91831879     0.37427950
     0.03330690     0.93497224     0.37427950
     0.04916733     0.95162569     0.37427950
     0.06502776     0.96827914     0.37427950
     0.08088818     0.98493259     0.37427950
     0.00237906     0.85249802     0.37427950
     0.01823949     0.86915147     0.37427950
     0.03409992     0.88580492     0.37427950
     0.04996035     0.90245837     0.37427950
     0.06582078     0.91911182     0.37427950
     0.08168121     0.93576527     0.37427950
     0.09754163     0.95241872     0.37427950
     0.11340206     0.96907216     0.37427950
     0.12926249     0.98572561     0.37427950
     0.00317209     0.80333069     0.37427950
     0.01903251     0.81998414     0.37427950
     0.03489294     0.83663759     0.37427950
     0.05075337     0.85329104     0.37427950
     0.06661380     0.86994449     0.37427950
     0.08247423     0.88659794     0.37427950
     0.09833466     0.90325139     0.37427950
     0.11419508     0.91990484     0.37427950
     0.13005551     0.93655829     0.37427950
     0.14591594     0.95321174     0.37427950
     0.16177637     0.96986519     0.37427950
     0.17763680     0.98651864     0.37427950
     0.00396511     0.75416336     0.37427950
     0.01982554     0.77081681     0.37427950
     0.03568596     0.78747026     0.37427950
     0.05154639     0.80412371     0.37427950
     0.06740682     0.82077716     0.37427950
     0.08326725     0.83743061     0.37427950
     0.09912768     0.85408406     0.37427950
     0.11498810     0.87073751     0.37427950
     0.13084853     0.88739096     0.37427950
     0.14670896     0.90404441     0.37427950
     0.16256939     0.92069786     0.37427950
     0.17842982     0.93735131     0.37427950
     0.19429025     0.95400476     0.37427950
     0.21015067     0.97065821     0.37427950
     0.22601110     0.98731166     0.37427950
     0.00475813     0.70499603     0.37427950
     0.02061856     0.72164948     0.37427950
     0.03647898     0.73830293     0.37427950
     0.05233941     0.75495638     0.37427950
     0.06819984     0.77160983     0.37427950
     0.08406027     0.78826328     0.37427950
     0.09992070     0.80491673     0.37427950
     0.11578113     0.82157018     0.37427950
     0.13164155     0.83822363     0.37427950
     0.14750198     0.85487708     0.37427950
     0.16336241     0.87153053     0.37427950
     0.17922284     0.88818398     0.37427950
     0.19508327     0.90483743     0.37427950
     0.21094370     0.92149088     0.37427950
     0.22680412     0.93814433     0.37427950
     0.24266455     0.95479778     0.37427950
     0.25852498     0.97145123     0.37427950
     0.27438541     0.98810468     0.37427950
     0.00555115     0.65582871     0.37427950
     0.02141158     0.67248216     0.37427950
     0.03727201     0.68913561     0.37427950
     0.05313243     0.70578906     0.37427950
     0.06899286     0.72244251     0.37427950
     0.08485329     0.73909596     0.37427950
     0.10071372     0.75574941     0.37427950
     0.11657415     0.77240285     0.37427950
     0.13243458     0.78905630     0.37427950
     0.14829500     0.80570975     0.37427950
     0.16415543     0.82236320     0.37427950
     0.18001586     0.83901665     0.37427950
     0.19587629     0.85567010     0.37427950
     0.21173672     0.87232355     0.37427950
     0.22759715     0.88897700     0.37427950
     0.24345757     0.90563045     0.37427950
     0.25931800     0.92228390     0.37427950
     0.27517843     0.93893735     0.37427950
     0.29103886     0.95559080     0.37427950
     0.30689929     0.97224425     0.37427950
     0.32275971     0.98889770     0.37427950
     0.00634417     0.60666138     0.37427950
     0.02220460     0.62331483     0.37427950
     0.03806503     0.63996828     0.37427950
     0.05392546     0.65662173     0.37427950
     0.06978588     0.67327518     0.37427950
     0.08564631     0.68992863     0.37427950
     0.10150674     0.70658208     0.37427950
     0.11736717     0.72323553     0.37427950
     0.13322760     0.73988898     0.37427950
     0.14908803     0.75654243     0.37427950
     0.16494845     0.77319588     0.37427950
     0.18080888     0.78984933     0.37427950
     0.19666931     0.80650278     0.37427950
     0.21252974     0.82315623     0.37427950
     0.22839017     0.83980967     0.37427950
     0.24425059     0.85646312     0.37427950
     0.26011102     0.87311657     0.37427950
     0.27597145     0.88977002     0.37427950
     0.29183188     0.90642347     0.37427950
     0.30769231     0.92307692     0.37427950
     0.32355274     0.93973037     0.37427950
     0.33941316     0.95638382     0.37427950
     0.35527359     0.97303727     0.37427950
     0.37113402     0.98969072     0.37427950
     0.00713719     0.55749405     0.37427950
     0.02299762     0.57414750     0.37427950
     0.03885805     0.59080095     0.37427950
     0.05471848     0.60745440     0.37427950
     0.07057891     0.62410785     0.37427950
     0.08643933     0.64076130     0.37427950
     0.10229976     0.65741475     0.37427950
     0.11816019     0.67406820     0.37427950
     0.13402062     0.69072165     0.37427950
     0.14988105     0.70737510     0.37427950
     0.16574148     0.72402855     0.37427950
     0.18160190     0.74068200     0.37427950
     0.19746233     0.75733545     0.37427950
     0.21332276     0.77398890     0.37427950
     0.22918319     0.79064235     0.37427950
     0.24504362     0.80729580     0.37427950
     0.26090404     0.82394925     0.37427950
     0.27676447     0.84060270     0.37427950
     0.29262490     0.85725615     0.37427950
     0.30848533     0.87390960     0.37427950
     0.32434576     0.89056305     0.37427950
     0.34020619     0.90721649     0.37427950
     0.35606661     0.92386994     0.37427950
     0.37192704     0.94052339     0.37427950
     0.38778747     0.95717684     0.37427950
     0.40364790     0.97383029     0.37427950
     0.41950833     0.99048374     0.37427950
     0.00793021     0.50832672     0.37427950
     0.02379064     0.52498017     0.37427950
     0.03965107     0.54163362     0.37427950
     0.05551150     0.55828707     0.37427950
     0.07137193     0.57494052     0.37427950
     0.08723236     0.59159397     0.37427950
     0.10309278     0.60824742     0.37427950
     0.11895321     0.62490087     0.37427950
     0.13481364     0.64155432     0.37427950
     0.15067407     0.65820777     0.37427950
     0.16653450     0.67486122     0.37427950
     0.18239492     0.69151467     0.37427950
     0.19825535     0.70816812     0.37427950
     0.21411578     0.72482157     0.37427950
     0.22997621     0.74147502     0.37427950
     0.24583664     0.75812847     0.37427950
     0.26169707     0.77478192     0.37427950
     0.27755749     0.79143537     0.37427950
     0.29341792     0.80808882     0.37427950
     0.30927835     0.82474227     0.37427950
     0.32513878     0.84139572     0.37427950
     0.34099921     0.85804917     0.37427950
     0.35685964     0.87470262     0.37427950
     0.37272006     0.89135607     0.37427950
     0.38858049     0.90800952     0.37427950
     0.40444092     0.92466297     0.37427950
     0.42030135     0.94131642     0.37427950
     0.43616178     0.95796987     0.37427950
     0.45202220     0.97462331     0.37427950
     0.46788263     0.99127676     0.37427950
     0.00872324     0.45915940     0.37427950
     0.02458366     0.47581285     0.37427950
     0.04044409     0.49246630     0.37427950
     0.05630452     0.50911975     0.37427950
     0.07216495     0.52577320     0.37427950
     0.08802538     0.54242665     0.37427950
     0.10388580     0.55908010     0.37427950
     0.11974623     0.57573354     0.37427950
     0.13560666     0.59238699     0.37427950
     0.15146709     0.60904044     0.37427950
     0.16732752     0.62569389     0.37427950
     0.18318795     0.64234734     0.37427950
     0.19904837     0.65900079     0.37427950
     0.21490880     0.67565424     0.37427950
     0.23076923     0.69230769     0.37427950
     0.24662966     0.70896114     0.37427950
     0.26249009     0.72561459     0.37427950
     0.27835052     0.74226804     0.37427950
     0.29421094     0.75892149     0.37427950
     0.31007137     0.77557494     0.37427950
     0.32593180     0.79222839     0.37427950
     0.34179223     0.80888184     0.37427950
     0.35765266     0.82553529     0.37427950
     0.37351308     0.84218874     0.37427950
     0.38937351     0.85884219     0.37427950
     0.40523394     0.87549564     0.37427950
     0.42109437     0.89214909     0.37427950
     0.43695480     0.90880254     0.37427950
     0.45281523     0.92545599     0.37427950
     0.46867565     0.94210944     0.37427950
     0.48453608     0.95876289     0.37427950
     0.50039651     0.97541634     0.37427950
     0.51625694     0.99206979     0.37427950
     0.00951626     0.40999207     0.37427950
     0.02537669     0.42664552     0.37427950
     0.04123711     0.44329897     0.37427950
     0.05709754     0.45995242     0.37427950
     0.07295797     0.47660587     0.37427950
     0.08881840     0.49325932     0.37427950
     0.10467883     0.50991277     0.37427950
     0.12053925     0.52656622     0.37427950
     0.13639968     0.54321967     0.37427950
     0.15226011     0.55987312     0.37427950
     0.16812054     0.57652657     0.37427950
     0.18398097     0.59318002     0.37427950
     0.19984140     0.60983347     0.37427950
     0.21570182     0.62648692     0.37427950
     0.23156225     0.64314036     0.37427950
     0.24742268     0.65979381     0.37427950
     0.26328311     0.67644726     0.37427950
     0.27914354     0.69310071     0.37427950
     0.29500397     0.70975416     0.37427950
     0.31086439     0.72640761     0.37427950
     0.32672482     0.74306106     0.37427950
     0.34258525     0.75971451     0.37427950
     0.35844568     0.77636796     0.37427950
     0.37430611     0.79302141     0.37427950
     0.39016653     0.80967486     0.37427950
     0.40602696     0.82632831     0.37427950
     0.42188739     0.84298176     0.37427950
     0.43774782     0.85963521     0.37427950
     0.45360825     0.87628866     0.37427950
     0.46946868     0.89294211     0.37427950
     0.48532910     0.90959556     0.37427950
     0.50118953     0.92624901     0.37427950
     0.51704996     0.94290246     0.37427950
     0.53291039     0.95955591     0.37427950
     0.54877082     0.97620936     0.37427950
     0.56463125     0.99286281     0.37427950
     0.01030928     0.36082474     0.37427950
     0.02616971     0.37747819     0.37427950
     0.04203013     0.39413164     0.37427950
     0.05789056     0.41078509     0.37427950
     0.07375099     0.42743854     0.37427950
     0.08961142     0.44409199     0.37427950
     0.10547185     0.46074544     0.37427950
     0.12133228     0.47739889     0.37427950
     0.13719270     0.49405234     0.37427950
     0.15305313     0.51070579     0.37427950
     0.16891356     0.52735924     0.37427950
     0.18477399     0.54401269     0.37427950
     0.20063442     0.56066614     0.37427950
     0.21649485     0.57731959     0.37427950
     0.23235527     0.59397304     0.37427950
     0.24821570     0.61062649     0.37427950
     0.26407613     0.62727994     0.37427950
     0.27993656     0.64393339     0.37427950
     0.29579699     0.66058684     0.37427950
     0.31165741     0.67724029     0.37427950
     0.32751784     0.69389374     0.37427950
     0.34337827     0.71054718     0.37427950
     0.35923870     0.72720063     0.37427950
     0.37509913     0.74385408     0.37427950
     0.39095956     0.76050753     0.37427950
     0.40681998     0.77716098     0.37427950
     0.42268041     0.79381443     0.37427950
     0.43854084     0.81046788     0.37427950
     0.45440127     0.82712133     0.37427950
     0.47026170     0.84377478     0.37427950
     0.48612213     0.86042823     0.37427950
     0.50198255     0.87708168     0.37427950
     0.51784298     0.89373513     0.37427950
     0.53370341     0.91038858     0.37427950
     0.54956384     0.92704203     0.37427950
     0.56542427     0.94369548     0.37427950
     0.58128469     0.96034893     0.37427950
     0.59714512     0.97700238     0.37427950
     0.61300555     0.99365583     0.37427950
     0.01110230     0.31165741     0.37427950
     0.02696273     0.32831086     0.37427950
     0.04282316     0.34496431     0.37427950
     0.05868358     0.36161776     0.37427950
     0.07454401     0.37827121     0.37427950
     0.09040444     0.39492466     0.37427950
     0.10626487     0.41157811     0.37427950
     0.12212530     0.42823156     0.37427950
     0.13798573     0.44488501     0.37427950
     0.15384615     0.46153846     0.37427950
     0.16970658     0.47819191     0.37427950
     0.18556701     0.49484536     0.37427950
     0.20142744     0.51149881     0.37427950
     0.21728787     0.52815226     0.37427950
     0.23314830     0.54480571     0.37427950
     0.24900872     0.56145916     0.37427950
     0.26486915     0.57811261     0.37427950
     0.28072958     0.59476606     0.37427950
     0.29659001     0.61141951     0.37427950
     0.31245044     0.62807296     0.37427950
     0.32831086     0.64472641     0.37427950
     0.34417129     0.66137986     0.37427950
     0.36003172     0.67803331     0.37427950
     0.37589215     0.69468676     0.37427950
     0.39175258     0.71134021     0.37427950
     0.40761301     0.72799366     0.37427950
     0.42347343     0.74464711     0.37427950
     0.43933386     0.76130056     0.37427950
     0.45519429     0.77795400     0.37427950
     0.47105472     0.79460745     0.37427950
     0.48691515     0.81126090     0.37427950
     0.50277557     0.82791435     0.37427950
     0.51863600     0.84456780     0.37427950
     0.53449643     0.86122125     0.37427950
     0.55035686     0.87787470     0.37427950
     0.56621729     0.89452815     0.37427950
     0.58207772     0.91118160     0.37427950
     0.59793814     0.92783505     0.37427950
     0.61379857     0.94448850     0.37427950
     0.62965900     0.96114195     0.37427950
     0.64551943     0.97779540     0.37427950
     0.66137986     0.99444885     0.37427950
     0.01189532     0.26249009     0.37427950
     0.02775575     0.27914354     0.37427950
     0.04361618     0.29579699     0.37427950
     0.05947661     0.31245044     0.37427950
     0.07533703     0.32910389     0.37427950
     0.09119746     0.34575734     0.37427950
     0.10705789     0.36241079     0.37427950
     0.12291832     0.37906423     0.37427950
     0.13877875     0.39571768     0.37427950
     0.15463918     0.41237113     0.37427950
     0.17049960     0.42902458     0.37427950
     0.18636003     0.44567803     0.37427950
     0.20222046     0.46233148     0.37427950
     0.21808089     0.47898493     0.37427950
     0.23394132     0.49563838     0.37427950
     0.24980174     0.51229183     0.37427950
     0.26566217     0.52894528     0.37427950
     0.28152260     0.54559873     0.37427950
     0.29738303     0.56225218     0.37427950
     0.31324346     0.57890563     0.37427950
     0.32910389     0.59555908     0.37427950
     0.34496431     0.61221253     0.37427950
     0.36082474     0.62886598     0.37427950
     0.37668517     0.64551943     0.37427950
     0.39254560     0.66217288     0.37427950
     0.40840603     0.67882633     0.37427950
     0.42426646     0.69547978     0.37427950
     0.44012688     0.71213323     0.37427950
     0.45598731     0.72878668     0.37427950
     0.47184774     0.74544013     0.37427950
     0.48770817     0.76209358     0.37427950
     0.50356860     0.77874703     0.37427950
     0.51942902     0.79540048     0.37427950
     0.53528945     0.81205393     0.37427950
     0.55114988     0.82870738     0.37427950
     0.56701031     0.84536082     0.37427950
     0.58287074     0.86201427     0.37427950
     0.59873117     0.87866772     0.37427950
     0.61459159     0.89532117     0.37427950
     0.63045202     0.91197462     0.37427950
     0.64631245     0.92862807     0.37427950
     0.66217288     0.94528152     0.37427950
     0.67803331     0.96193497     0.37427950
     0.69389374     0.97858842     0.37427950
     0.70975416     0.99524187     0.37427950
     0.01268834     0.21332276     0.37427950
     0.02854877     0.22997621     0.37427950
     0.04440920     0.24662966     0.37427950
     0.06026963     0.26328311     0.37427950
     0.07613006     0.27993656     0.37427950
     0.09199048     0.29659001     0.37427950
     0.10785091     0.31324346     0.37427950
     0.12371134     0.32989691     0.37427950
     0.13957177     0.34655036     0.37427950
     0.15543220     0.36320381     0.37427950
     0.17129262     0.37985726     0.37427950
     0.18715305     0.39651071     0.37427950
     0.20301348     0.41316416     0.37427950
     0.21887391     0.42981761     0.37427950
     0.23473434     0.44647105     0.37427950
     0.25059477     0.46312450     0.37427950
     0.26645519     0.47977795     0.37427950
     0.28231562     0.49643140     0.37427950
     0.29817605     0.51308485     0.37427950
     0.31403648     0.52973830     0.37427950
     0.32989691     0.54639175     0.37427950
     0.34575734     0.56304520     0.37427950
     0.36161776     0.57969865     0.37427950
     0.37747819     0.59635210     0.37427950
     0.39333862     0.61300555     0.37427950
     0.40919905     0.62965900     0.37427950
     0.42505948     0.64631245     0.37427950
     0.44091990     0.66296590     0.37427950
     0.45678033     0.67961935     0.37427950
     0.47264076     0.69627280     0.37427950
     0.48850119     0.71292625     0.37427950
     0.50436162     0.72957970     0.37427950
     0.52022205     0.74623315     0.37427950
     0.53608247     0.76288660     0.37427950
     0.55194290     0.77954005     0.37427950
     0.56780333     0.79619350     0.37427950
     0.58366376     0.81284695     0.37427950
     0.59952419     0.82950040     0.37427950
     0.61538462     0.84615385     0.37427950
     0.63124504     0.86280730     0.37427950
     0.64710547     0.87946075     0.37427950
     0.66296590     0.89611420     0.37427950
     0.67882633     0.91276764     0.37427950
     0.69468676     0.92942109     0.37427950
     0.71054718     0.94607454     0.37427950
     0.72640761     0.96272799     0.37427950
     0.74226804     0.97938144     0.37427950
     0.75812847     0.99603489     0.37427950
     0.01348136     0.16415543     0.37427950
     0.02934179     0.18080888     0.37427950
     0.04520222     0.19746233     0.37427950
     0.06106265     0.21411578     0.37427950
     0.07692308     0.23076923     0.37427950
     0.09278351     0.24742268     0.37427950
     0.10864393     0.26407613     0.37427950
     0.12450436     0.28072958     0.37427950
     0.14036479     0.29738303     0.37427950
     0.15622522     0.31403648     0.37427950
     0.17208565     0.33068993     0.37427950
     0.18794607     0.34734338     0.37427950
     0.20380650     0.36399683     0.37427950
     0.21966693     0.38065028     0.37427950
     0.23552736     0.39730373     0.37427950
     0.25138779     0.41395718     0.37427950
     0.26724822     0.43061063     0.37427950
     0.28310864     0.44726408     0.37427950
     0.29896907     0.46391753     0.37427950
     0.31482950     0.48057098     0.37427950
     0.33068993     0.49722443     0.37427950
     0.34655036     0.51387787     0.37427950
     0.36241079     0.53053132     0.37427950
     0.37827121     0.54718477     0.37427950
     0.39413164     0.56383822     0.37427950
     0.40999207     0.58049167     0.37427950
     0.42585250     0.59714512     0.37427950
     0.44171293     0.61379857     0.37427950
     0.45757335     0.63045202     0.37427950
     0.47343378     0.64710547     0.37427950
     0.48929421     0.66375892     0.37427950
     0.50515464     0.68041237     0.37427950
     0.52101507     0.69706582     0.37427950
     0.53687550     0.71371927     0.37427950
     0.55273592     0.73037272     0.37427950
     0.56859635     0.74702617     0.37427950
     0.58445678     0.76367962     0.37427950
     0.60031721     0.78033307     0.37427950
     0.61617764     0.79698652     0.37427950
     0.63203807     0.81363997     0.37427950
     0.64789849     0.83029342     0.37427950
     0.66375892     0.84694687     0.37427950
     0.67961935     0.86360032     0.37427950
     0.69547978     0.88025377     0.37427950
     0.71134021     0.89690722     0.37427950
     0.72720063     0.91356067     0.37427950
     0.74306106     0.93021412     0.37427950
     0.75892149     0.94686757     0.37427950
     0.77478192     0.96352102     0.37427950
     0.79064235     0.98017446     0.37427950
     0.80650278     0.99682791     0.37427950
     0.01427439     0.11498810     0.37427950
     0.03013481     0.13164155     0.37427950
     0.04599524     0.14829500     0.37427950
     0.06185567     0.16494845     0.37427950
     0.07771610     0.18160190     0.37427950
     0.09357653     0.19825535     0.37427950
     0.10943695     0.21490880     0.37427950
     0.12529738     0.23156225     0.37427950
     0.14115781     0.24821570     0.37427950
     0.15701824     0.26486915     0.37427950
     0.17287867     0.28152260     0.37427950
     0.18873910     0.29817605     0.37427950
     0.20459952     0.31482950     0.37427950
     0.22045995     0.33148295     0.37427950
     0.23632038     0.34813640     0.37427950
     0.25218081     0.36478985     0.37427950
     0.26804124     0.38144330     0.37427950
     0.28390167     0.39809675     0.37427950
     0.29976209     0.41475020     0.37427950
     0.31562252     0.43140365     0.37427950
     0.33148295     0.44805710     0.37427950
     0.34734338     0.46471055     0.37427950
     0.36320381     0.48136400     0.37427950
     0.37906423     0.49801745     0.37427950
     0.39492466     0.51467090     0.37427950
     0.41078509     0.53132435     0.37427950
     0.42664552     0.54797780     0.37427950
     0.44250595     0.56463125     0.37427950
     0.45836638     0.58128469     0.37427950
     0.47422680     0.59793814     0.37427950
     0.49008723     0.61459159     0.37427950
     0.50594766     0.63124504     0.37427950
     0.52180809     0.64789849     0.37427950
     0.53766852     0.66455194     0.37427950
     0.55352895     0.68120539     0.37427950
     0.56938937     0.69785884     0.37427950
     0.58524980     0.71451229     0.37427950
     0.60111023     0.73116574     0.37427950
     0.61697066     0.74781919     0.37427950
     0.63283109     0.76447264     0.37427950
     0.64869151     0.78112609     0.37427950
     0.66455194     0.79777954     0.37427950
     0.68041237     0.81443299     0.37427950
     0.69627280     0.83108644     0.37427950
     0.71213323     0.84773989     0.37427950
     0.72799366     0.86439334     0.37427950
     0.74385408     0.88104679     0.37427950
     0.75971451     0.89770024     0.37427950
     0.77557494     0.91435369     0.37427950
     0.79143537     0.93100714     0.37427950
     0.80729580     0.94766059     0.37427950
     0.82315623     0.96431404     0.37427950
     0.83901665     0.98096749     0.37427950
     0.85487708     0.99762094     0.37427950
     0.01506741     0.06582078     0.37427950
     0.03092784     0.08247423     0.37427950
     0.04678826     0.09912768     0.37427950
     0.06264869     0.11578113     0.37427950
     0.07850912     0.13243458     0.37427950
     0.09436955     0.14908803     0.37427950
     0.11022998     0.16574148     0.37427950
     0.12609040     0.18239492     0.37427950
     0.14195083     0.19904837     0.37427950
     0.15781126     0.21570182     0.37427950
     0.17367169     0.23235527     0.37427950
     0.18953212     0.24900872     0.37427950
     0.20539255     0.26566217     0.37427950
     0.22125297     0.28231562     0.37427950
     0.23711340     0.29896907     0.37427950
     0.25297383     0.31562252     0.37427950
     0.26883426     0.33227597     0.37427950
     0.28469469     0.34892942     0.37427950
     0.30055511     0.36558287     0.37427950
     0.31641554     0.38223632     0.37427950
     0.33227597     0.39888977     0.37427950
     0.34813640     0.41554322     0.37427950
     0.36399683     0.43219667     0.37427950
     0.37985726     0.44885012     0.37427950
     0.39571768     0.46550357     0.37427950
     0.41157811     0.48215702     0.37427950
     0.42743854     0.49881047     0.37427950
     0.44329897     0.51546392     0.37427950
     0.45915940     0.53211737     0.37427950
     0.47501983     0.54877082     0.37427950
     0.49088025     0.56542427     0.37427950
     0.50674068     0.58207772     0.37427950
     0.52260111     0.59873117     0.37427950
     0.53846154     0.61538462     0.37427950
     0.55432197     0.63203807     0.37427950
     0.57018239     0.64869151     0.37427950
     0.58604282     0.66534496     0.37427950
     0.60190325     0.68199841     0.37427950
     0.61776368     0.69865186     0.37427950
     0.63362411     0.71530531     0.37427950
     0.64948454     0.73195876     0.37427950
     0.66534496     0.74861221     0.37427950
     0.68120539     0.76526566     0.37427950
     0.69706582     0.78191911     0.37427950
     0.71292625     0.79857256     0.37427950
     0.72878668     0.81522601     0.37427950
     0.74464711     0.83187946     0.37427950
     0.76050753     0.84853291     0.37427950
     0.77636796     0.86518636     0.37427950
     0.79222839     0.88183981     0.37427950
     0.80808882     0.89849326     0.37427950
     0.82394925     0.91514671     0.37427950
     0.83980967     0.93180016     0.37427950
     0.85567010     0.94845361     0.37427950
     0.87153053     0.96510706     0.37427950
     0.88739096     0.98176051     0.37427950
     0.90325139     0.99841396     0.37427950
     0.00000000     0.00000000     0.37427950
     0.01586043     0.01665345     0.37427950
     0.03172086     0.03330690     0.37427950
     0.04758128     0.04996035     0.37427950
     0.06344171     0.06661380     0.37427950
     0.07930214     0.08326725     0.37427950
     0.09516257     0.09992070     0.37427950
     0.11102300     0.11657415     0.37427950
     0.12688343     0.13322760     0.37427950
     0.14274385     0.14988105     0.37427950
     0.15860428     0.16653450     0.37427950
     0.17446471     0.18318795     0.37427950
     0.19032514     0.19984140     0.37427950
     0.20618557     0.21649485     0.37427950
     0.22204600     0.23314830     0.37427950
     0.23790642     0.24980174     0.37427950
     0.25376685     0.26645519     0.37427950
     0.26962728     0.28310864     0.37427950
     0.28548771     0.29976209     0.37427950
     0.30134814     0.31641554     0.37427950
     0.31720856     0.33306899     0.37427950
     0.33306899     0.34972244     0.37427950
     0.34892942     0.36637589     0.37427950
     0.36478985     0.38302934     0.37427950
     0.38065028     0.39968279     0.37427950
     0.39651071     0.41633624     0.37427950
     0.41237113     0.43298969     0.37427950
     0.42823156     0.44964314     0.37427950
     0.44409199     0.46629659     0.37427950
     0.45995242     0.48295004     0.37427950
     0.47581285     0.49960349     0.37427950
     0.49167328     0.51625694     0.37427950
     0.50753370     0.53291039     0.37427950
     0.52339413     0.54956384     0.37427950
     0.53925456     0.56621729     0.37427950
     0.55511499     0.58287074     0.37427950
     0.57097542     0.59952419     0.37427950
     0.58683584     0.61617764     0.37427950
     0.60269627     0.63283109     0.37427950
     0.61855670     0.64948454     0.37427950
     0.63441713     0.66613799     0.37427950
     0.65027756     0.68279144     0.37427950
     0.66613799     0.69944489     0.37427950
     0.68199841     0.71609833     0.37427950
     0.69785884     0.73275178     0.37427950
     0.71371927     0.74940523     0.37427950
     0.72957970     0.76605868     0.37427950
     0.74544013     0.78271213     0.37427950
     0.76130056     0.79936558     0.37427950
     0.77716098     0.81601903     0.37427950
     0.79302141     0.83267248     0.37427950
     0.80888184     0.84932593     0.37427950
     0.82474227     0.86597938     0.37427950
     0.84060270     0.88263283     0.37427950
     0.85646312     0.89928628     0.37427950
     0.87232355     0.91593973     0.37427950
     0.88818398     0.93259318     0.37427950
     0.90404441     0.94924663     0.37427950
     0.91990484     0.96590008     0.37427950
     0.93576527     0.98255353     0.37427950
     0.95162569     0.99920698     0.37427950
     0.04837431     0.00079302     0.37427950
     0.06423473     0.01744647     0.37427950
     0.08009516     0.03409992     0.37427950
     0.09595559     0.05075337     0.37427950
     0.11181602     0.06740682     0.37427950
     0.12767645     0.08406027     0.37427950
     0.14353688     0.10071372     0.37427950
     0.15939730     0.11736717     0.37427950
     0.17525773     0.13402062     0.37427950
     0.19111816     0.15067407     0.37427950
     0.20697859     0.16732752     0.37427950
     0.22283902     0.18398097     0.37427950
     0.23869944     0.20063442     0.37427950
     0.25455987     0.21728787     0.37427950
     0.27042030     0.23394132     0.37427950
     0.28628073     0.25059477     0.37427950