Generated by Twist2D
    1.0
       9.37065000       3.24608900       0.00000000
       1.87413000       9.73826700       0.00000000
       0.00000000       0.00000000      16.00000000
    Pt  Se
    14  28
Direct
     0.00000000     0.00000000     0.37427950
     0.14285714     0.28571429     0.37427950
     0.28571429     0.57142857     0.37427950
     0.42857143     0.85714286     0.37427950
     0.57142857     0.14285714     0.37427950
     0.71428571     0.42857143     0.37427950
     0.85714286     0.71428571     0.37427950
     0.14285714     0.57142857     0.76079000
     0.42857143     0.71428571     0.76079000
     0.71428571     0.85714286     0.76079000
     0.00000000     0.00000000     0.76079000
     0.28571429     0.14285714     0.76079000
     0.57142857     0.28571429     0.76079000
     0.85714286     0.42857143     0.76079000
     0.38095214     0.09523829     0.29164600
     0.52380929     0.38095257     0.29164600
     0.66666643     0.66666686     0.29164600
     0.80952357     0.95238114     0.29164600
     0.95238071     0.23809543     0.29164600
     1.09523786     0.52380971     0.29164600
     1.23809500     0.80952400     0.29164600
     0.19047643     0.04761886     0.45454150
     0.33333357     0.33333314     0.45454150
     0.47619071     0.61904743     0.45454150
     0.61904786     0.90476171     0.45454150
     0.76190500     0.19047600     0.45454150
     0.90476214     0.47619029     0.45454150
     1.04761929     0.76190457     0.45454150
     0.61904743     0.47619071     0.68052650
     0.90476171     0.61904786     0.68052650
     1.19047600     0.76190500     0.68052650
     0.47619029    -0.09523786     0.68052650
     0.76190457     0.04761929     0.68052650
     1.04761886     0.19047643     0.68052650
     1.33333314     0.33333357     0.68052650
     0.38095257     0.52380929     0.84342200
     0.66666686     0.66666643     0.84342200
     0.95238114     0.80952357     0.84342200
     0.23809543    -0.04761929     0.84342200
     0.52380971     0.09523786     0.84342200
     0.80952400     0.23809500     0.84342200
     1.09523829     0.38095214     0.84342200
