Pt2 Se4
   1.00000000000000
     3.7482600000000001    0.0000000000000000    0.0000000000000000
    -1.8741300000000001    3.2460890000000000    0.0000000000000000
     0.0000000000000000    0.0000000000000000   24.0000000000000000
   Pt   Se
     2     4
Direct
  0.0000000000000000  0.0000000000000000  0.3887377514966046
  0.0000000000000000 -0.0000000000000000  0.5918692485034017
  0.3333330000000032  0.6666669999999968  0.3336493366052081
  0.6666669999999968  0.3333330000000032  0.4422457877543448
  0.3333330000000032  0.6666669999999968  0.5383602122456573
  0.6666669999999968  0.3333330000000032  0.6469566633947934
