Generated by Twist2D
    1.0
     174.74098065       0.00000000       0.00000000
       0.00000000     124.05361721       0.00000000
       0.00000000       0.00000000      20.00000000
    P
    11876
Direct
     0.00943396     0.02078309     0.42564718
     0.00943396     0.05649738     0.42564718
     0.00943396     0.09221166     0.42564718
     0.00943396     0.12792595     0.42564718
     0.00943396     0.16364023     0.42564718
     0.00943396     0.19935452     0.42564718
     0.00943396     0.23506880     0.42564718
     0.00943396     0.27078309     0.42564718
     0.00943396     0.30649738     0.42564718
     0.00943396     0.34221166     0.42564718
     0.00943396     0.37792595     0.42564718
     0.00943396     0.41364023     0.42564718
     0.00943396     0.44935452     0.42564718
     0.00943396     0.48506880     0.42564718
     0.00943396     0.52078309     0.42564718
     0.00943396     0.55649738     0.42564718
     0.00943396     0.59221166     0.42564718
     0.00943396     0.62792595     0.42564718
     0.00943396     0.66364023     0.42564718
     0.00943396     0.69935452     0.42564718
     0.00943396     0.73506880     0.42564718
     0.00943396     0.77078309     0.42564718
     0.00943396     0.80649738     0.42564718
     0.00943396     0.84221166     0.42564718
     0.00943396     0.87792595     0.42564718
     0.00943396     0.91364023     0.42564718
     0.00943396     0.94935452     0.42564718
     0.00943396     0.98506880     0.42564718
     0.02830189     0.02078309     0.42564718
     0.02830189     0.05649738     0.42564718
     0.02830189     0.09221166     0.42564718
     0.02830189     0.12792595     0.42564718
     0.02830189     0.16364023     0.42564718
     0.02830189     0.19935452     0.42564718
     0.02830189     0.23506880     0.42564718
     0.02830189     0.27078309     0.42564718
     0.02830189     0.30649738     0.42564718
     0.02830189     0.34221166     0.42564718
     0.02830189     0.37792595     0.42564718
     0.02830189     0.41364023     0.42564718
     0.02830189     0.44935452     0.42564718
     0.02830189     0.48506880     0.42564718
     0.02830189     0.52078309     0.42564718
     0.02830189     0.55649738     0.42564718
     0.02830189     0.59221166     0.42564718
     0.02830189     0.62792595     0.42564718
     0.02830189     0.66364023     0.42564718
     0.02830189     0.69935452     0.42564718
     0.02830189     0.73506880     0.42564718
     0.02830189     0.77078309     0.42564718
     0.02830189     0.80649738     0.42564718
     0.02830189     0.84221166     0.42564718
     0.02830189     0.87792595     0.42564718
     0.02830189     0.91364023     0.42564718
     0.02830189     0.94935452     0.42564718
     0.02830189     0.98506880     0.42564718
     0.04716981     0.02078309     0.42564718
     0.04716981     0.05649738     0.42564718
     0.04716981     0.09221166     0.42564718
     0.04716981     0.12792595     0.42564718
     0.04716981     0.16364023     0.42564718
     0.04716981     0.19935452     0.42564718
     0.04716981     0.23506880     0.42564718
     0.04716981     0.27078309     0.42564718
     0.04716981     0.30649738     0.42564718
     0.04716981     0.34221166     0.42564718
     0.04716981     0.37792595     0.42564718
     0.04716981     0.41364023     0.42564718
     0.04716981     0.44935452     0.42564718
     0.04716981     0.48506880     0.42564718
     0.04716981     0.52078309     0.42564718
     0.04716981     0.55649738     0.42564718
     0.04716981     0.59221166     0.42564718
     0.04716981     0.62792595     0.42564718
     0.04716981     0.66364023     0.42564718
     0.04716981     0.69935452     0.42564718
     0.04716981     0.73506880     0.42564718
     0.04716981     0.77078309     0.42564718
     0.04716981     0.80649738     0.42564718
     0.04716981     0.84221166     0.42564718
     0.04716981     0.87792595     0.42564718
     0.04716981     0.91364023     0.42564718
     0.04716981     0.94935452     0.42564718
     0.04716981     0.98506880     0.42564718
     0.06603774     0.02078309     0.42564718
     0.06603774     0.05649738     0.42564718
     0.06603774     0.09221166     0.42564718
     0.06603774     0.12792595     0.42564718
     0.06603774     0.16364023     0.42564718
     0.06603774     0.19935452     0.42564718
     0.06603774     0.23506880     0.42564718
     0.06603774     0.27078309     0.42564718
     0.06603774     0.30649738     0.42564718
     0.06603774     0.34221166     0.42564718
     0.06603774     0.37792595     0.42564718
     0.06603774     0.41364023     0.42564718
     0.06603774     0.44935452     0.42564718
     0.06603774     0.48506880     0.42564718
     0.06603774     0.52078309     0.42564718
     0.06603774     0.55649738     0.42564718
     0.06603774     0.59221166     0.42564718
     0.06603774     0.62792595     0.42564718
     0.06603774     0.66364023     0.42564718
     0.06603774     0.69935452     0.42564718
     0.06603774     0.73506880     0.42564718
     0.06603774     0.77078309     0.42564718
     0.06603774     0.80649738     0.42564718
     0.06603774     0.84221166     0.42564718
     0.06603774     0.87792595     0.42564718
     0.06603774     0.91364023     0.42564718
     0.06603774     0.94935452     0.42564718
     0.06603774     0.98506880     0.42564718
     0.08490566     0.02078309     0.42564718
     0.08490566     0.05649738     0.42564718
     0.08490566     0.09221166     0.42564718
     0.08490566     0.12792595     0.42564718
     0.08490566     0.16364023     0.42564718
     0.08490566     0.19935452     0.42564718
     0.08490566     0.23506880     0.42564718
     0.08490566     0.27078309     0.42564718
     0.08490566     0.30649738     0.42564718
     0.08490566     0.34221166     0.42564718
     0.08490566     0.37792595     0.42564718
     0.08490566     0.41364023     0.42564718
     0.08490566     0.44935452     0.42564718
     0.08490566     0.48506880     0.42564718
     0.08490566     0.52078309     0.42564718
     0.08490566     0.55649738     0.42564718
     0.08490566     0.59221166     0.42564718
     0.08490566     0.62792595     0.42564718
     0.08490566     0.66364023     0.42564718
     0.08490566     0.69935452     0.42564718
     0.08490566     0.73506880     0.42564718
     0.08490566     0.77078309     0.42564718
     0.08490566     0.80649738     0.42564718
     0.08490566     0.84221166     0.42564718
     0.08490566     0.87792595     0.42564718
     0.08490566     0.91364023     0.42564718
     0.08490566     0.94935452     0.42564718
     0.08490566     0.98506880     0.42564718
     0.10377358     0.02078309     0.42564718
     0.10377358     0.05649738     0.42564718
     0.10377358     0.09221166     0.42564718
     0.10377358     0.12792595     0.42564718
     0.10377358     0.16364023     0.42564718
     0.10377358     0.19935452     0.42564718
     0.10377358     0.23506880     0.42564718
     0.10377358     0.27078309     0.42564718
     0.10377358     0.30649738     0.42564718
     0.10377358     0.34221166     0.42564718
     0.10377358     0.37792595     0.42564718
     0.10377358     0.41364023     0.42564718
     0.10377358     0.44935452     0.42564718
     0.10377358     0.48506880     0.42564718
     0.10377358     0.52078309     0.42564718
     0.10377358     0.55649738     0.42564718
     0.10377358     0.59221166     0.42564718
     0.10377358     0.62792595     0.42564718
     0.10377358     0.66364023     0.42564718
     0.10377358     0.69935452     0.42564718
     0.10377358     0.73506880     0.42564718
     0.10377358     0.77078309     0.42564718
     0.10377358     0.80649738     0.42564718
     0.10377358     0.84221166     0.42564718
     0.10377358     0.87792595     0.42564718
     0.10377358     0.91364023     0.42564718
     0.10377358     0.94935452     0.42564718
     0.10377358     0.98506880     0.42564718
     0.12264151     0.02078309     0.42564718
     0.12264151     0.05649738     0.42564718
     0.12264151     0.09221166     0.42564718
     0.12264151     0.12792595     0.42564718
     0.12264151     0.16364023     0.42564718
     0.12264151     0.19935452     0.42564718
     0.12264151     0.23506880     0.42564718
     0.12264151     0.27078309     0.42564718
     0.12264151     0.30649738     0.42564718
     0.12264151     0.34221166     0.42564718
     0.12264151     0.37792595     0.42564718
     0.12264151     0.41364023     0.42564718
     0.12264151     0.44935452     0.42564718
     0.12264151     0.48506880     0.42564718
     0.12264151     0.52078309     0.42564718
     0.12264151     0.55649738     0.42564718
     0.12264151     0.59221166     0.42564718
     0.12264151     0.62792595     0.42564718
     0.12264151     0.66364023     0.42564718
     0.12264151     0.69935452     0.42564718
     0.12264151     0.73506880     0.42564718
     0.12264151     0.77078309     0.42564718
     0.12264151     0.80649738     0.42564718
     0.12264151     0.84221166     0.42564718
     0.12264151     0.87792595     0.42564718
     0.12264151     0.91364023     0.42564718
     0.12264151     0.94935452     0.42564718
     0.12264151     0.98506880     0.42564718
     0.14150943     0.02078309     0.42564718
     0.14150943     0.05649738     0.42564718
     0.14150943     0.09221166     0.42564718
     0.14150943     0.12792595     0.42564718
     0.14150943     0.16364023     0.42564718
     0.14150943     0.19935452     0.42564718
     0.14150943     0.23506880     0.42564718
     0.14150943     0.27078309     0.42564718
     0.14150943     0.30649738     0.42564718
     0.14150943     0.34221166     0.42564718
     0.14150943     0.37792595     0.42564718
     0.14150943     0.41364023     0.42564718
     0.14150943     0.44935452     0.42564718
     0.14150943     0.48506880     0.42564718
     0.14150943     0.52078309     0.42564718
     0.14150943     0.55649738     0.42564718
     0.14150943     0.59221166     0.42564718
     0.14150943     0.62792595     0.42564718
     0.14150943     0.66364023     0.42564718
     0.14150943     0.69935452     0.42564718
     0.14150943     0.73506880     0.42564718
     0.14150943     0.77078309     0.42564718
     0.14150943     0.80649738     0.42564718
     0.14150943     0.84221166     0.42564718
     0.14150943     0.87792595     0.42564718
     0.14150943     0.91364023     0.42564718
     0.14150943     0.94935452     0.42564718
     0.14150943     0.98506880     0.42564718
     0.16037736     0.02078309     0.42564718
     0.16037736     0.05649738     0.42564718
     0.16037736     0.09221166     0.42564718
     0.16037736     0.12792595     0.42564718
     0.16037736     0.16364023     0.42564718
     0.16037736     0.19935452     0.42564718
     0.16037736     0.23506880     0.42564718
     0.16037736     0.27078309     0.42564718
     0.16037736     0.30649738     0.42564718
     0.16037736     0.34221166     0.42564718
     0.16037736     0.37792595     0.42564718
     0.16037736     0.41364023     0.42564718
     0.16037736     0.44935452     0.42564718
     0.16037736     0.48506880     0.42564718
     0.16037736     0.52078309     0.42564718
     0.16037736     0.55649738     0.42564718
     0.16037736     0.59221166     0.42564718
     0.16037736     0.62792595     0.42564718
     0.16037736     0.66364023     0.42564718
     0.16037736     0.69935452     0.42564718
     0.16037736     0.73506880     0.42564718
     0.16037736     0.77078309     0.42564718
     0.16037736     0.80649738     0.42564718
     0.16037736     0.84221166     0.42564718
     0.16037736     0.87792595     0.42564718
     0.16037736     0.91364023     0.42564718
     0.16037736     0.94935452     0.42564718
     0.16037736     0.98506880     0.42564718
     0.17924528     0.02078309     0.42564718
     0.17924528     0.05649738     0.42564718
     0.17924528     0.09221166     0.42564718
     0.17924528     0.12792595     0.42564718
     0.17924528     0.16364023     0.42564718
     0.17924528     0.19935452     0.42564718
     0.17924528     0.23506880     0.42564718
     0.17924528     0.27078309     0.42564718
     0.17924528     0.30649738     0.42564718
     0.17924528     0.34221166     0.42564718
     0.17924528     0.37792595     0.42564718
     0.17924528     0.41364023     0.42564718
     0.17924528     0.44935452     0.42564718
     0.17924528     0.48506880     0.42564718
     0.17924528     0.52078309     0.42564718
     0.17924528     0.55649738     0.42564718
     0.17924528     0.59221166     0.42564718
     0.17924528     0.62792595     0.42564718
     0.17924528     0.66364023     0.42564718
     0.17924528     0.69935452     0.42564718
     0.17924528     0.73506880     0.42564718
     0.17924528     0.77078309     0.42564718
     0.17924528     0.80649738     0.42564718
     0.17924528     0.84221166     0.42564718
     0.17924528     0.87792595     0.42564718
     0.17924528     0.91364023     0.42564718
     0.17924528     0.94935452     0.42564718
     0.17924528     0.98506880     0.42564718
     0.19811321     0.02078309     0.42564718
     0.19811321     0.05649738     0.42564718
     0.19811321     0.09221166     0.42564718
     0.19811321     0.12792595     0.42564718
     0.19811321     0.16364023     0.42564718
     0.19811321     0.19935452     0.42564718
     0.19811321     0.23506880     0.42564718
     0.19811321     0.27078309     0.42564718
     0.19811321     0.30649738     0.42564718
     0.19811321     0.34221166     0.42564718
     0.19811321     0.37792595     0.42564718
     0.19811321     0.41364023     0.42564718
     0.19811321     0.44935452     0.42564718
     0.19811321     0.48506880     0.42564718
     0.19811321     0.52078309     0.42564718
     0.19811321     0.55649738     0.42564718
     0.19811321     0.59221166     0.42564718
     0.19811321     0.62792595     0.42564718
     0.19811321     0.66364023     0.42564718
     0.19811321     0.69935452     0.42564718
     0.19811321     0.73506880     0.42564718
     0.19811321     0.77078309     0.42564718
     0.19811321     0.80649738     0.42564718
     0.19811321     0.84221166     0.42564718
     0.19811321     0.87792595     0.42564718
     0.19811321     0.91364023     0.42564718
     0.19811321     0.94935452     0.42564718
     0.19811321     0.98506880     0.42564718
     0.21698113     0.02078309     0.42564718
     0.21698113     0.05649738     0.42564718
     0.21698113     0.09221166     0.42564718
     0.21698113     0.12792595     0.42564718
     0.21698113     0.16364023     0.42564718
     0.21698113     0.19935452     0.42564718
     0.21698113     0.23506880     0.42564718
     0.21698113     0.27078309     0.42564718
     0.21698113     0.30649738     0.42564718
     0.21698113     0.34221166     0.42564718
     0.21698113     0.37792595     0.42564718
     0.21698113     0.41364023     0.42564718
     0.21698113     0.44935452     0.42564718
     0.21698113     0.48506880     0.42564718
     0.21698113     0.52078309     0.42564718
     0.21698113     0.55649738     0.42564718
     0.21698113     0.59221166     0.42564718
     0.21698113     0.62792595     0.42564718
     0.21698113     0.66364023     0.42564718
     0.21698113     0.69935452     0.42564718
     0.21698113     0.73506880     0.42564718
     0.21698113     0.77078309     0.42564718
     0.21698113     0.80649738     0.42564718
     0.21698113     0.84221166     0.42564718
     0.21698113     0.87792595     0.42564718
     0.21698113     0.91364023     0.42564718
     0.21698113     0.94935452     0.42564718
     0.21698113     0.98506880     0.42564718
     0.23584906     0.02078309     0.42564718
     0.23584906     0.05649738     0.42564718
     0.23584906     0.09221166     0.42564718
     0.23584906     0.12792595     0.42564718
     0.23584906     0.16364023     0.42564718
     0.23584906     0.19935452     0.42564718
     0.23584906     0.23506880     0.42564718
     0.23584906     0.27078309     0.42564718
     0.23584906     0.30649738     0.42564718
     0.23584906     0.34221166     0.42564718
     0.23584906     0.37792595     0.42564718
     0.23584906     0.41364023     0.42564718
     0.23584906     0.44935452     0.42564718
     0.23584906     0.48506880     0.42564718
     0.23584906     0.52078309     0.42564718
     0.23584906     0.55649738     0.42564718
     0.23584906     0.59221166     0.42564718
     0.23584906     0.62792595     0.42564718
     0.23584906     0.66364023     0.42564718
     0.23584906     0.69935452     0.42564718
     0.23584906     0.73506880     0.42564718
     0.23584906     0.77078309     0.42564718
     0.23584906     0.80649738     0.42564718
     0.23584906     0.84221166     0.42564718
     0.23584906     0.87792595     0.42564718
     0.23584906     0.91364023     0.42564718
     0.23584906     0.94935452     0.42564718
     0.23584906     0.98506880     0.42564718
     0.25471698     0.02078309     0.42564718
     0.25471698     0.05649738     0.42564718
     0.25471698     0.09221166     0.42564718
     0.25471698     0.12792595     0.42564718
     0.25471698     0.16364023     0.42564718
     0.25471698     0.19935452     0.42564718
     0.25471698     0.23506880     0.42564718
     0.25471698     0.27078309     0.42564718
     0.25471698     0.30649738     0.42564718
     0.25471698     0.34221166     0.42564718
     0.25471698     0.37792595     0.42564718
     0.25471698     0.41364023     0.42564718
     0.25471698     0.44935452     0.42564718
     0.25471698     0.48506880     0.42564718
     0.25471698     0.52078309     0.42564718
     0.25471698     0.55649738     0.42564718
     0.25471698     0.59221166     0.42564718
     0.25471698     0.62792595     0.42564718
     0.25471698     0.66364023     0.42564718
     0.25471698     0.69935452     0.42564718
     0.25471698     0.73506880     0.42564718
     0.25471698     0.77078309     0.42564718
     0.25471698     0.80649738     0.42564718
     0.25471698     0.84221166     0.42564718
     0.25471698     0.87792595     0.42564718
     0.25471698     0.91364023     0.42564718
     0.25471698     0.94935452     0.42564718
     0.25471698     0.98506880     0.42564718
     0.27358491     0.02078309     0.42564718
     0.27358491     0.05649738     0.42564718
     0.27358491     0.09221166     0.42564718
     0.27358491     0.12792595     0.42564718
     0.27358491     0.16364023     0.42564718
     0.27358491     0.19935452     0.42564718
     0.27358491     0.23506880     0.42564718
     0.27358491     0.27078309     0.42564718
     0.27358491     0.30649738     0.42564718
     0.27358491     0.34221166     0.42564718
     0.27358491     0.37792595     0.42564718
     0.27358491     0.41364023     0.42564718
     0.27358491     0.44935452     0.42564718
     0.27358491     0.48506880     0.42564718
     0.27358491     0.52078309     0.42564718
     0.27358491     0.55649738     0.42564718
     0.27358491     0.59221166     0.42564718
     0.27358491     0.62792595     0.42564718
     0.27358491     0.66364023     0.42564718
     0.27358491     0.69935452     0.42564718
     0.27358491     0.73506880     0.42564718
     0.27358491     0.77078309     0.42564718
     0.27358491     0.80649738     0.42564718
     0.27358491     0.84221166     0.42564718
     0.27358491     0.87792595     0.42564718
     0.27358491     0.91364023     0.42564718
     0.27358491     0.94935452     0.42564718
     0.27358491     0.98506880     0.42564718
     0.29245283     0.02078309     0.42564718
     0.29245283     0.05649738     0.42564718
     0.29245283     0.09221166     0.42564718
     0.29245283     0.12792595     0.42564718
     0.29245283     0.16364023     0.42564718
     0.29245283     0.19935452     0.42564718
     0.29245283     0.23506880     0.42564718
     0.29245283     0.27078309     0.42564718
     0.29245283     0.30649738     0.42564718
     0.29245283     0.34221166     0.42564718
     0.29245283     0.37792595     0.42564718
     0.29245283     0.41364023     0.42564718
     0.29245283     0.44935452     0.42564718
     0.29245283     0.48506880     0.42564718
     0.29245283     0.52078309     0.42564718
     0.29245283     0.55649738     0.42564718
     0.29245283     0.59221166     0.42564718
     0.29245283     0.62792595     0.42564718
     0.29245283     0.66364023     0.42564718
     0.29245283     0.69935452     0.42564718
     0.29245283     0.73506880     0.42564718
     0.29245283     0.77078309     0.42564718
     0.29245283     0.80649738     0.42564718
     0.29245283     0.84221166     0.42564718
     0.29245283     0.87792595     0.42564718
     0.29245283     0.91364023     0.42564718
     0.29245283     0.94935452     0.42564718
     0.29245283     0.98506880     0.42564718
     0.31132075     0.02078309     0.42564718
     0.31132075     0.05649738     0.42564718
     0.31132075     0.09221166     0.42564718
     0.31132075     0.12792595     0.42564718
     0.31132075     0.16364023     0.42564718
     0.31132075     0.19935452     0.42564718
     0.31132075     0.23506880     0.42564718
     0.31132075     0.27078309     0.42564718
     0.31132075     0.30649738     0.42564718
     0.31132075     0.34221166     0.42564718
     0.31132075     0.37792595     0.42564718
     0.31132075     0.41364023     0.42564718
     0.31132075     0.44935452     0.42564718
     0.31132075     0.48506880     0.42564718
     0.31132075     0.52078309     0.42564718
     0.31132075     0.55649738     0.42564718
     0.31132075     0.59221166     0.42564718
     0.31132075     0.62792595     0.42564718
     0.31132075     0.66364023     0.42564718
     0.31132075     0.69935452     0.42564718
     0.31132075     0.73506880     0.42564718
     0.31132075     0.77078309     0.42564718
     0.31132075     0.80649738     0.42564718
     0.31132075     0.84221166     0.42564718
     0.31132075     0.87792595     0.42564718
     0.31132075     0.91364023     0.42564718
     0.31132075     0.94935452     0.42564718
     0.31132075     0.98506880     0.42564718
     0.33018868     0.02078309     0.42564718
     0.33018868     0.05649738     0.42564718
     0.33018868     0.09221166     0.42564718
     0.33018868     0.12792595     0.42564718
     0.33018868     0.16364023     0.42564718
     0.33018868     0.19935452     0.42564718
     0.33018868     0.23506880     0.42564718
     0.33018868     0.27078309     0.42564718
     0.33018868     0.30649738     0.42564718
     0.33018868     0.34221166     0.42564718
     0.33018868     0.37792595     0.42564718
     0.33018868     0.41364023     0.42564718
     0.33018868     0.44935452     0.42564718
     0.33018868     0.48506880     0.42564718
     0.33018868     0.52078309     0.42564718
     0.33018868     0.55649738     0.42564718
     0.33018868     0.59221166     0.42564718
     0.33018868     0.62792595     0.42564718
     0.33018868     0.66364023     0.42564718
     0.33018868     0.69935452     0.42564718
     0.33018868     0.73506880     0.42564718
     0.33018868     0.77078309     0.42564718
     0.33018868     0.80649738     0.42564718
     0.33018868     0.84221166     0.42564718
     0.33018868     0.87792595     0.42564718
     0.33018868     0.91364023     0.42564718
     0.33018868     0.94935452     0.42564718
     0.33018868     0.98506880     0.42564718
     0.34905660     0.02078309     0.42564718
     0.34905660     0.05649738     0.42564718
     0.34905660     0.09221166     0.42564718
     0.34905660     0.12792595     0.42564718
     0.34905660     0.16364023     0.42564718
     0.34905660     0.19935452     0.42564718
     0.34905660     0.23506880     0.42564718
     0.34905660     0.27078309     0.42564718
     0.34905660     0.30649738     0.42564718
     0.34905660     0.34221166     0.42564718
     0.34905660     0.37792595     0.42564718
     0.34905660     0.41364023     0.42564718
     0.34905660     0.44935452     0.42564718
     0.34905660     0.48506880     0.42564718
     0.34905660     0.52078309     0.42564718
     0.34905660     0.55649738     0.42564718
     0.34905660     0.59221166     0.42564718
     0.34905660     0.62792595     0.42564718
     0.34905660     0.66364023     0.42564718
     0.34905660     0.69935452     0.42564718
     0.34905660     0.73506880     0.42564718
     0.34905660     0.77078309     0.42564718
     0.34905660     0.80649738     0.42564718
     0.34905660     0.84221166     0.42564718
     0.34905660     0.87792595     0.42564718
     0.34905660     0.91364023     0.42564718
     0.34905660     0.94935452     0.42564718
     0.34905660     0.98506880     0.42564718
     0.36792453     0.02078309     0.42564718
     0.36792453     0.05649738     0.42564718
     0.36792453     0.09221166     0.42564718
     0.36792453     0.12792595     0.42564718
     0.36792453     0.16364023     0.42564718
     0.36792453     0.19935452     0.42564718
     0.36792453     0.23506880     0.42564718
     0.36792453     0.27078309     0.42564718
     0.36792453     0.30649738     0.42564718
     0.36792453     0.34221166     0.42564718
     0.36792453     0.37792595     0.42564718
     0.36792453     0.41364023     0.42564718
     0.36792453     0.44935452     0.42564718
     0.36792453     0.48506880     0.42564718
     0.36792453     0.52078309     0.42564718
     0.36792453     0.55649738     0.42564718
     0.36792453     0.59221166     0.42564718
     0.36792453     0.62792595     0.42564718
     0.36792453     0.66364023     0.42564718
     0.36792453     0.69935452     0.42564718
     0.36792453     0.73506880     0.42564718
     0.36792453     0.77078309     0.42564718
     0.36792453     0.80649738     0.42564718
     0.36792453     0.84221166     0.42564718
     0.36792453     0.87792595     0.42564718
     0.36792453     0.91364023     0.42564718
     0.36792453     0.94935452     0.42564718
     0.36792453     0.98506880     0.42564718
     0.38679245     0.02078309     0.42564718
     0.38679245     0.05649738     0.42564718
     0.38679245     0.09221166     0.42564718
     0.38679245     0.12792595     0.42564718
     0.38679245     0.16364023     0.42564718
     0.38679245     0.19935452     0.42564718
     0.38679245     0.23506880     0.42564718
     0.38679245     0.27078309     0.42564718
     0.38679245     0.30649738     0.42564718
     0.38679245     0.34221166     0.42564718
     0.38679245     0.37792595     0.42564718
     0.38679245     0.41364023     0.42564718
     0.38679245     0.44935452     0.42564718
     0.38679245     0.48506880     0.42564718
     0.38679245     0.52078309     0.42564718
     0.38679245     0.55649738     0.42564718
     0.38679245     0.59221166     0.42564718
     0.38679245     0.62792595     0.42564718
     0.38679245     0.66364023     0.42564718
     0.38679245     0.69935452     0.42564718
     0.38679245     0.73506880     0.42564718
     0.38679245     0.77078309     0.42564718
     0.38679245     0.80649738     0.42564718
     0.38679245     0.84221166     0.42564718
     0.38679245     0.87792595     0.42564718
     0.38679245     0.91364023     0.42564718
     0.38679245     0.94935452     0.42564718
     0.38679245     0.98506880     0.42564718
     0.40566038     0.02078309     0.42564718
     0.40566038     0.05649738     0.42564718
     0.40566038     0.09221166     0.42564718
     0.40566038     0.12792595     0.42564718
     0.40566038     0.16364023     0.42564718
     0.40566038     0.19935452     0.42564718
     0.40566038     0.23506880     0.42564718
     0.40566038     0.27078309     0.42564718
     0.40566038     0.30649738     0.42564718
     0.40566038     0.34221166     0.42564718
     0.40566038     0.37792595     0.42564718
     0.40566038     0.41364023     0.42564718
     0.40566038     0.44935452     0.42564718
     0.40566038     0.48506880     0.42564718
     0.40566038     0.52078309     0.42564718
     0.40566038     0.55649738     0.42564718
     0.40566038     0.59221166     0.42564718
     0.40566038     0.62792595     0.42564718
     0.40566038     0.66364023     0.42564718
     0.40566038     0.69935452     0.42564718
     0.40566038     0.73506880     0.42564718
     0.40566038     0.77078309     0.42564718
     0.40566038     0.80649738     0.42564718
     0.40566038     0.84221166     0.42564718
     0.40566038     0.87792595     0.42564718
     0.40566038     0.91364023     0.42564718
     0.40566038     0.94935452     0.42564718
     0.40566038     0.98506880     0.42564718
     0.42452830     0.02078309     0.42564718
     0.42452830     0.05649738     0.42564718
     0.42452830     0.09221166     0.42564718
     0.42452830     0.12792595     0.42564718
     0.42452830     0.16364023     0.42564718
     0.42452830     0.19935452     0.42564718
     0.42452830     0.23506880     0.42564718
     0.42452830     0.27078309     0.42564718
     0.42452830     0.30649738     0.42564718
     0.42452830     0.34221166     0.42564718
     0.42452830     0.37792595     0.42564718
     0.42452830     0.41364023     0.42564718
     0.42452830     0.44935452     0.42564718
     0.42452830     0.48506880     0.42564718
     0.42452830     0.52078309     0.42564718
     0.42452830     0.55649738     0.42564718
     0.42452830     0.59221166     0.42564718
     0.42452830     0.62792595     0.42564718
     0.42452830     0.66364023     0.42564718
     0.42452830     0.69935452     0.42564718
     0.42452830     0.73506880     0.42564718
     0.42452830     0.77078309     0.42564718
     0.42452830     0.80649738     0.42564718
     0.42452830     0.84221166     0.42564718
     0.42452830     0.87792595     0.42564718
     0.42452830     0.91364023     0.42564718
     0.42452830     0.94935452     0.42564718
     0.42452830     0.98506880     0.42564718
     0.44339623     0.02078309     0.42564718
     0.44339623     0.05649738     0.42564718
     0.44339623     0.09221166     0.42564718