Generated by Twist2D
    1.0
      29.81519938       0.00000000       0.00000000
       0.00000000      22.51699924       0.00000000
       0.00000000       0.00000000      30.00000000
    P
    364
Direct
     0.00000000     0.11686200     0.27054000
     0.00000000     0.31686200     0.27054000
     0.00000000     0.51686200     0.27054000
     0.00000000     0.71686200     0.27054000
     0.00000000     0.91686200     0.27054000
     0.11111111     0.11686200     0.27054000
     0.11111111     0.31686200     0.27054000
     0.11111111     0.51686200     0.27054000
     0.11111111     0.71686200     0.27054000
     0.11111111     0.91686200     0.27054000
     0.22222222     0.11686200     0.27054000
     0.22222222     0.31686200     0.27054000
     0.22222222     0.51686200     0.27054000
     0.22222222     0.71686200     0.27054000
     0.22222222     0.91686200     0.27054000
     0.33333333     0.11686200     0.27054000
     0.33333333     0.31686200     0.27054000
     0.33333333     0.51686200     0.27054000
     0.33333333     0.71686200     0.27054000
     0.33333333     0.91686200     0.27054000
     0.44444444     0.11686200     0.27054000
     0.44444444     0.31686200     0.27054000
     0.44444444     0.51686200     0.27054000
     0.44444444     0.71686200     0.27054000
     0.44444444     0.91686200     0.27054000
     0.55555556     0.11686200     0.27054000
     0.55555556     0.31686200     0.27054000
     0.55555556     0.51686200     0.27054000
     0.55555556     0.71686200     0.27054000
     0.55555556     0.91686200     0.27054000
     0.66666667     0.11686200     0.27054000
     0.66666667     0.31686200     0.27054000
     0.66666667     0.51686200     0.27054000
     0.66666667     0.71686200     0.27054000
     0.66666667     0.91686200     0.27054000
     0.77777778     0.11686200     0.27054000
     0.77777778     0.31686200     0.27054000
     0.77777778     0.51686200     0.27054000
     0.77777778     0.71686200     0.27054000
     0.77777778     0.91686200     0.27054000
     0.88888889     0.11686200     0.27054000
     0.88888889     0.31686200     0.27054000
     0.88888889     0.51686200     0.27054000
     0.88888889     0.71686200     0.27054000
     0.88888889     0.91686200     0.27054000
     0.00000000     0.08313800     0.19967000
     0.00000000     0.28313800     0.19967000
     0.00000000     0.48313800     0.19967000
     0.00000000     0.68313800     0.19967000
     0.00000000     0.88313800     0.19967000
     0.11111111     0.08313800     0.19967000
     0.11111111     0.28313800     0.19967000
     0.11111111     0.48313800     0.19967000
     0.11111111     0.68313800     0.19967000
     0.11111111     0.88313800     0.19967000
     0.22222222     0.08313800     0.19967000
     0.22222222     0.28313800     0.19967000
     0.22222222     0.48313800     0.19967000
     0.22222222     0.68313800     0.19967000
     0.22222222     0.88313800     0.19967000
     0.33333333     0.08313800     0.19967000
     0.33333333     0.28313800     0.19967000
     0.33333333     0.48313800     0.19967000
     0.33333333     0.68313800     0.19967000
     0.33333333     0.88313800     0.19967000
     0.44444444     0.08313800     0.19967000
     0.44444444     0.28313800     0.19967000
     0.44444444     0.48313800     0.19967000
     0.44444444     0.68313800     0.19967000
     0.44444444     0.88313800     0.19967000
     0.55555556     0.08313800     0.19967000
     0.55555556     0.28313800     0.19967000
     0.55555556     0.48313800     0.19967000
     0.55555556     0.68313800     0.19967000
     0.55555556     0.88313800     0.19967000
     0.66666667     0.08313800     0.19967000
     0.66666667     0.28313800     0.19967000
     0.66666667     0.48313800     0.19967000
     0.66666667     0.68313800     0.19967000
     0.66666667     0.88313800     0.19967000
     0.77777778     0.08313800     0.19967000
     0.77777778     0.28313800     0.19967000
     0.77777778     0.48313800     0.19967000
     0.77777778     0.68313800     0.19967000
     0.77777778     0.88313800     0.19967000
     0.88888889     0.08313800     0.19967000
     0.88888889     0.28313800     0.19967000
     0.88888889     0.48313800     0.19967000
     0.88888889     0.68313800     0.19967000
     0.88888889     0.88313800     0.19967000
     0.05555556     0.01686200     0.19967000
     0.05555556     0.21686200     0.19967000
     0.05555556     0.41686200     0.19967000
     0.05555556     0.61686200     0.19967000
     0.05555556     0.81686200     0.19967000
     0.16666667     0.01686200     0.19967000
     0.16666667     0.21686200     0.19967000
     0.16666667     0.41686200     0.19967000
     0.16666667     0.61686200     0.19967000
     0.16666667     0.81686200     0.19967000
     0.27777778     0.01686200     0.19967000
     0.27777778     0.21686200     0.19967000
     0.27777778     0.41686200     0.19967000
     0.27777778     0.61686200     0.19967000
     0.27777778     0.81686200     0.19967000
     0.38888889     0.01686200     0.19967000
     0.38888889     0.21686200     0.19967000
     0.38888889     0.41686200     0.19967000
     0.38888889     0.61686200     0.19967000
     0.38888889     0.81686200     0.19967000
     0.50000000     0.01686200     0.19967000
     0.50000000     0.21686200     0.19967000
     0.50000000     0.41686200     0.19967000
     0.50000000     0.61686200     0.19967000
     0.50000000     0.81686200     0.19967000
     0.61111111     0.01686200     0.19967000
     0.61111111     0.21686200     0.19967000
     0.61111111     0.41686200     0.19967000
     0.61111111     0.61686200     0.19967000
     0.61111111     0.81686200     0.19967000
     0.72222222     0.01686200     0.19967000
     0.72222222     0.21686200     0.19967000
     0.72222222     0.41686200     0.19967000
     0.72222222     0.61686200     0.19967000
     0.72222222     0.81686200     0.19967000
     0.83333333     0.01686200     0.19967000
     0.83333333     0.21686200     0.19967000
     0.83333333     0.41686200     0.19967000
     0.83333333     0.61686200     0.19967000
     0.83333333     0.81686200     0.19967000
     0.94444444     0.01686200     0.19967000
     0.94444444     0.21686200     0.19967000
     0.94444444     0.41686200     0.19967000
     0.94444444     0.61686200     0.19967000
     0.94444444     0.81686200     0.19967000
     0.05555556     0.18313800     0.27054000
     0.05555556     0.38313800     0.27054000
     0.05555556     0.58313800     0.27054000
     0.05555556     0.78313800     0.27054000
     0.05555556     0.98313800     0.27054000
     0.16666667     0.18313800     0.27054000
     0.16666667     0.38313800     0.27054000
     0.16666667     0.58313800     0.27054000
     0.16666667     0.78313800     0.27054000
     0.16666667     0.98313800     0.27054000
     0.27777778     0.18313800     0.27054000
     0.27777778     0.38313800     0.27054000
     0.27777778     0.58313800     0.27054000
     0.27777778     0.78313800     0.27054000
     0.27777778     0.98313800     0.27054000
     0.38888889     0.18313800     0.27054000
     0.38888889     0.38313800     0.27054000
     0.38888889     0.58313800     0.27054000
     0.38888889     0.78313800     0.27054000
     0.38888889     0.98313800     0.27054000
     0.50000000     0.18313800     0.27054000
     0.50000000     0.38313800     0.27054000
     0.50000000     0.58313800     0.27054000
     0.50000000     0.78313800     0.27054000
     0.50000000     0.98313800     0.27054000
     0.61111111     0.18313800     0.27054000
     0.61111111     0.38313800     0.27054000
     0.61111111     0.58313800     0.27054000
     0.61111111     0.78313800     0.27054000
     0.61111111     0.98313800     0.27054000
     0.72222222     0.18313800     0.27054000
     0.72222222     0.38313800     0.27054000
     0.72222222     0.58313800     0.27054000
     0.72222222     0.78313800     0.27054000
     0.72222222     0.98313800     0.27054000
     0.83333333     0.18313800     0.27054000
     0.83333333     0.38313800     0.27054000
     0.83333333     0.58313800     0.27054000
     0.83333333     0.78313800     0.27054000
     0.83333333     0.98313800     0.27054000
     0.94444444     0.18313800     0.27054000
     0.94444444     0.38313800     0.27054000
     0.94444444     0.58313800     0.27054000
     0.94444444     0.78313800     0.27054000
     0.94444444     0.98313800     0.27054000
    -0.01270239     0.11432152     0.44807666
     0.09599326     0.13606065     0.44807666
     0.07425413     0.33171283     0.44807666
     0.05251500     0.52736500     0.44807666
     0.03077587     0.72301717     0.44807666
     0.00903674     0.91866935     0.44807666
     0.20468891     0.15779978     0.44807666
     0.18294978     0.35345196     0.44807666
     0.16121065     0.54910413     0.44807666
     0.13947152     0.74475630     0.44807666
     0.11773239     0.94040848     0.44807666
     0.31338457     0.17953891     0.44807666
     0.29164543     0.37519109     0.44807666
     0.26990630     0.57084326     0.44807666
     0.24816717     0.76649543     0.44807666
     0.22642804     0.96214761     0.44807666
     0.42208022     0.20127804     0.44807666
     0.40034109     0.39693022     0.44807666
     0.37860196     0.59258239     0.44807666
     0.35686283     0.78823456     0.44807666
     0.33512370     0.98388674     0.44807666
     0.53077587     0.22301717     0.44807666
     0.50903674     0.41866935     0.44807666
     0.48729761     0.61432152     0.44807666
     0.46555848     0.80997369     0.44807666
     0.44381935     1.00562587     0.44807666
     0.63947152     0.24475630     0.44807666
     0.61773239     0.44040848     0.44807666
     0.59599326     0.63606065     0.44807666
     0.57425413     0.83171283     0.44807666
     0.55251500     1.02736500     0.44807666
     0.74816717     0.26649543     0.44807666
     0.72642804     0.46214761     0.44807666
     0.70468891     0.65779978     0.44807666
     0.68294978     0.85345196     0.44807666
     0.66121065     1.04910413     0.44807666
     0.85686283     0.28823456     0.44807666
     0.83512370     0.48388674     0.44807666
     0.81338457     0.67953891     0.44807666
     0.79164543     0.87519109     0.44807666
     0.76990630     1.07084326     0.44807666
     0.96555848     0.30997369     0.44807666
     0.94381935     0.50562587     0.44807666
     0.92208022     0.70127804     0.44807666
     0.90034109     0.89693022     0.44807666
     0.87860196     1.09258239     0.44807666
    -0.00903674     0.08133065     0.37720667
     0.09965891     0.10306978     0.37720667
     0.07791978     0.29872196     0.37720667
     0.05618065     0.49437413     0.37720667
     0.03444152     0.69002631     0.37720667
     0.01270239     0.88567848     0.37720667
     0.20835457     0.12480891     0.37720667
     0.18661543     0.32046109     0.37720667
     0.16487630     0.51611326     0.37720667
     0.14313717     0.71176544     0.37720667
     0.12139804     0.90741761     0.37720667
     0.31705022     0.14654804     0.37720667
     0.29531109     0.34220022     0.37720667
     0.27357196     0.53785239     0.37720667
     0.25183283     0.73350457     0.37720667
     0.23009370     0.92915674     0.37720667
     0.42574587     0.16828717     0.37720667
     0.40400674     0.36393935     0.37720667
     0.38226761     0.55959152     0.37720667
     0.36052848     0.75524370     0.37720667
     0.33878935     0.95089587     0.37720667
     0.53444152     0.19002631     0.37720667
     0.51270239     0.38567848     0.37720667
     0.49096326     0.58133065     0.37720667
     0.46922413     0.77698283     0.37720667
     0.44748500     0.97263500     0.37720667
     0.64313717     0.21176544     0.37720667
     0.62139804     0.40741761     0.37720667
     0.59965891     0.60306978     0.37720667
     0.57791978     0.79872196     0.37720667
     0.55618065     0.99437413     0.37720667
     0.75183283     0.23350457     0.37720667
     0.73009370     0.42915674     0.37720667
     0.70835457     0.62480891     0.37720667
     0.68661543     0.82046109     0.37720667
     0.66487630     1.01611326     0.37720667
     0.86052848     0.25524370     0.37720667
     0.83878935     0.45089587     0.37720667
     0.81705022     0.64654804     0.37720667
     0.79531109     0.84220022     0.37720667
     0.77357196     1.03785239     0.37720667
     0.96922413     0.27698283     0.37720667
     0.94748500     0.47263500     0.37720667
     0.92574587     0.66828717     0.37720667
     0.90400674     0.86393935     0.37720667
     0.88226761     1.05959152     0.37720667
     0.05251500     0.02736500     0.37720667
     0.16121065     0.04910413     0.37720667
     0.13947152     0.24475630     0.37720667
     0.11773239     0.44040848     0.37720667
     0.09599326     0.63606065     0.37720667
     0.07425413     0.83171283     0.37720667
     0.26990630     0.07084326     0.37720667
     0.24816717     0.26649544     0.37720667
     0.22642804     0.46214761     0.37720667
     0.20468891     0.65779978     0.37720667
     0.18294978     0.85345196     0.37720667
     0.37860196     0.09258239     0.37720667
     0.35686283     0.28823457     0.37720667
     0.33512370     0.48388674     0.37720667
     0.31338457     0.67953891     0.37720667
     0.29164543     0.87519109     0.37720667
     0.48729761     0.11432152     0.37720667
     0.46555848     0.30997370     0.37720667
     0.44381935     0.50562587     0.37720667
     0.42208022     0.70127804     0.37720667
     0.40034109     0.89693022     0.37720667
     0.59599326     0.13606065     0.37720667
     0.57425413     0.33171283     0.37720667
     0.55251500     0.52736500     0.37720667
     0.53077587     0.72301717     0.37720667
     0.50903674     0.91866935     0.37720667
     0.70468891     0.15779978     0.37720667
     0.68294978     0.35345196     0.37720667
     0.66121065     0.54910413     0.37720667
     0.63947152     0.74475630     0.37720667
     0.61773239     0.94040848     0.37720667
     0.81338457     0.17953891     0.37720667
     0.79164543     0.37519109     0.37720667
     0.76990630     0.57084326     0.37720667
     0.74816717     0.76649544     0.37720667
     0.72642804     0.96214761     0.37720667
     0.92208022     0.20127804     0.37720667
     0.90034109     0.39693022     0.37720667
     0.87860196     0.59258239     0.37720667
     0.85686283     0.78823457     0.37720667
     0.83512370     0.98388674     0.37720667
     1.03077587     0.22301717     0.37720667
     1.00903674     0.41866935     0.37720667
     0.98729761     0.61432152     0.37720667
     0.96555848     0.80997370     0.37720667
     0.94381935     1.00562587     0.37720667
     0.03444152     0.19002631     0.44807666
     0.14313717     0.21176544     0.44807666
     0.12139804     0.40741761     0.44807666
     0.09965891     0.60306978     0.44807666
     0.07791978     0.79872196     0.44807666
     0.05618065     0.99437413     0.44807666
     0.25183283     0.23350457     0.44807666
     0.23009370     0.42915674     0.44807666
     0.20835457     0.62480891     0.44807666
     0.18661543     0.82046109     0.44807666
     0.16487630     1.01611326     0.44807666
     0.36052848     0.25524370     0.44807666
     0.33878935     0.45089587     0.44807666
     0.31705022     0.64654804     0.44807666
     0.29531109     0.84220022     0.44807666
     0.27357196     1.03785239     0.44807666
     0.46922413     0.27698283     0.44807666
     0.44748500     0.47263500     0.44807666
     0.42574587     0.66828717     0.44807666
     0.40400674     0.86393935     0.44807666
     0.38226761     1.05959152     0.44807666
     0.57791978     0.29872196     0.44807666
     0.55618065     0.49437413     0.44807666
     0.53444152     0.69002631     0.44807666
     0.51270239     0.88567848     0.44807666
     0.49096326     1.08133065     0.44807666
     0.68661543     0.32046109     0.44807666
     0.66487630     0.51611326     0.44807666
     0.64313717     0.71176544     0.44807666
     0.62139804     0.90741761     0.44807666
     0.59965891     1.10306978     0.44807666
     0.79531109     0.34220022     0.44807666
     0.77357196     0.53785239     0.44807666
     0.75183283     0.73350457     0.44807666
     0.73009370     0.92915674     0.44807666
     0.70835457     1.12480891     0.44807666
     0.90400674     0.36393935     0.44807666
     0.88226761     0.55959152     0.44807666
     0.86052848     0.75524370     0.44807666
     0.83878935     0.95089587     0.44807666
     0.81705022     1.14654804     0.44807666
     1.01270239     0.38567848     0.44807666
     0.99096326     0.58133065     0.44807666
     0.96922413     0.77698283     0.44807666
     0.94748500     0.97263500     0.44807666
     0.92574587     1.16828717     0.44807666
