Generated by Twist2D
1.0
       39.7536010742         0.0000000000         0.0000000000
        0.0000000000        27.0203990936         0.0000000000
        0.0000000000         0.0000000000        30.0000000000
    P
  580
Direct
     0.000000000         0.097384997         0.270539999
     0.000000000         0.264051676         0.270539999
     0.000000000         0.430718333         0.270539999
     0.000000000         0.597384989         0.270539999
     0.000000000         0.764051676         0.270539999
     0.000000000         0.930718303         0.270539999
     0.083333328         0.097384997         0.270539999
     0.083333328         0.264051676         0.270539999
     0.083333328         0.430718333         0.270539999
     0.083333328         0.597384989         0.270539999
     0.083333328         0.764051676         0.270539999
     0.083333328         0.930718303         0.270539999
     0.166666672         0.097384997         0.270539999
     0.166666672         0.264051676         0.270539999
     0.166666672         0.430718333         0.270539999
     0.166666672         0.597384989         0.270539999
     0.166666672         0.764051676         0.270539999
     0.166666672         0.930718303         0.270539999
     0.250000000         0.097384997         0.270539999
     0.250000000         0.264051676         0.270539999
     0.250000000         0.430718333         0.270539999
     0.250000000         0.597384989         0.270539999
     0.250000000         0.764051676         0.270539999
     0.250000000         0.930718303         0.270539999
     0.333333343         0.097384997         0.270539999
     0.333333343         0.264051676         0.270539999
     0.333333343         0.430718333         0.270539999
     0.333333343         0.597384989         0.270539999
     0.333333343         0.764051676         0.270539999
     0.333333343         0.930718303         0.270539999
     0.416666657         0.097384997         0.270539999
     0.416666657         0.264051676         0.270539999
     0.416666657         0.430718333         0.270539999
     0.416666657         0.597384989         0.270539999
     0.416666657         0.764051676         0.270539999
     0.416666657         0.930718303         0.270539999
     0.500000000         0.097384997         0.270539999
     0.500000000         0.264051676         0.270539999
     0.500000000         0.430718333         0.270539999
     0.500000000         0.597384989         0.270539999
     0.500000000         0.764051676         0.270539999
     0.500000000         0.930718303         0.270539999
     0.583333313         0.097384997         0.270539999
     0.583333313         0.264051676         0.270539999
     0.583333313         0.430718333         0.270539999
     0.583333313         0.597384989         0.270539999
     0.583333313         0.764051676         0.270539999
     0.583333313         0.930718303         0.270539999
     0.666666687         0.097384997         0.270539999
     0.666666687         0.264051676         0.270539999
     0.666666687         0.430718333         0.270539999
     0.666666687         0.597384989         0.270539999
     0.666666687         0.764051676         0.270539999
     0.666666687         0.930718303         0.270539999
     0.750000000         0.097384997         0.270539999
     0.750000000         0.264051676         0.270539999
     0.750000000         0.430718333         0.270539999
     0.750000000         0.597384989         0.270539999
     0.750000000         0.764051676         0.270539999
     0.750000000         0.930718303         0.270539999
     0.833333313         0.097384997         0.270539999
     0.833333313         0.264051676         0.270539999
     0.833333313         0.430718333         0.270539999
     0.833333313         0.597384989         0.270539999
     0.833333313         0.764051676         0.270539999
     0.833333313         0.930718303         0.270539999
     0.916666687         0.097384997         0.270539999
     0.916666687         0.264051676         0.270539999
     0.916666687         0.430718333         0.270539999
     0.916666687         0.597384989         0.270539999
     0.916666687         0.764051676         0.270539999
     0.916666687         0.930718303         0.270539999
     0.000000000         0.069281667         0.199670002
     0.000000000         0.235948324         0.199670002
     0.000000000         0.402615011         0.199670002
     0.000000000         0.569281697         0.199670002
     0.000000000         0.735948324         0.199670002
     0.000000000         0.902615011         0.199670002
     0.083333328         0.069281667         0.199670002
     0.083333328         0.235948324         0.199670002
     0.083333328         0.402615011         0.199670002
     0.083333328         0.569281697         0.199670002
     0.083333328         0.735948324         0.199670002
     0.083333328         0.902615011         0.199670002
     0.166666672         0.069281667         0.199670002
     0.166666672         0.235948324         0.199670002
     0.166666672         0.402615011         0.199670002
     0.166666672         0.569281697         0.199670002
     0.166666672         0.735948324         0.199670002
     0.166666672         0.902615011         0.199670002
     0.250000000         0.069281667         0.199670002
     0.250000000         0.235948324         0.199670002
     0.250000000         0.402615011         0.199670002
     0.250000000         0.569281697         0.199670002
     0.250000000         0.735948324         0.199670002
     0.250000000         0.902615011         0.199670002
     0.333333343         0.069281667         0.199670002
     0.333333343         0.235948324         0.199670002
     0.333333343         0.402615011         0.199670002
     0.333333343         0.569281697         0.199670002
     0.333333343         0.735948324         0.199670002
     0.333333343         0.902615011         0.199670002
     0.416666657         0.069281667         0.199670002
     0.416666657         0.235948324         0.199670002
     0.416666657         0.402615011         0.199670002
     0.416666657         0.569281697         0.199670002
     0.416666657         0.735948324         0.199670002
     0.416666657         0.902615011         0.199670002
     0.500000000         0.069281667         0.199670002
     0.500000000         0.235948324         0.199670002
     0.500000000         0.402615011         0.199670002
     0.500000000         0.569281697         0.199670002
     0.500000000         0.735948324         0.199670002
     0.500000000         0.902615011         0.199670002
     0.583333313         0.069281667         0.199670002
     0.583333313         0.235948324         0.199670002
     0.583333313         0.402615011         0.199670002
     0.583333313         0.569281697         0.199670002
     0.583333313         0.735948324         0.199670002
     0.583333313         0.902615011         0.199670002
     0.666666687         0.069281667         0.199670002
     0.666666687         0.235948324         0.199670002
     0.666666687         0.402615011         0.199670002
     0.666666687         0.569281697         0.199670002
     0.666666687         0.735948324         0.199670002
     0.666666687         0.902615011         0.199670002
     0.750000000         0.069281667         0.199670002
     0.750000000         0.235948324         0.199670002
     0.750000000         0.402615011         0.199670002
     0.750000000         0.569281697         0.199670002
     0.750000000         0.735948324         0.199670002
     0.750000000         0.902615011         0.199670002
     0.833333313         0.069281667         0.199670002
     0.833333313         0.235948324         0.199670002
     0.833333313         0.402615011         0.199670002
     0.833333313         0.569281697         0.199670002
     0.833333313         0.735948324         0.199670002
     0.833333313         0.902615011         0.199670002
     0.916666687         0.069281667         0.199670002
     0.916666687         0.235948324         0.199670002
     0.916666687         0.402615011         0.199670002
     0.916666687         0.569281697         0.199670002
     0.916666687         0.735948324         0.199670002
     0.916666687         0.902615011         0.199670002
     0.041666672         0.014051670         0.199670002
     0.041666672         0.180718333         0.199670002
     0.041666672         0.347384989         0.199670002
     0.041666672         0.514051676         0.199670002
     0.041666672         0.680718303         0.199670002
     0.041666672         0.847384989         0.199670002
     0.125000000         0.014051670         0.199670002
     0.125000000         0.180718333         0.199670002
     0.125000000         0.347384989         0.199670002
     0.125000000         0.514051676         0.199670002
     0.125000000         0.680718303         0.199670002
     0.125000000         0.847384989         0.199670002
     0.208333328         0.014051670         0.199670002
     0.208333328         0.180718333         0.199670002
     0.208333328         0.347384989         0.199670002
     0.208333328         0.514051676         0.199670002
     0.208333328         0.680718303         0.199670002
     0.208333328         0.847384989         0.199670002
     0.291666657         0.014051670         0.199670002
     0.291666657         0.180718333         0.199670002
     0.291666657         0.347384989         0.199670002
     0.291666657         0.514051676         0.199670002
     0.291666657         0.680718303         0.199670002
     0.291666657         0.847384989         0.199670002
     0.375000000         0.014051670         0.199670002
     0.375000000         0.180718333         0.199670002
     0.375000000         0.347384989         0.199670002
     0.375000000         0.514051676         0.199670002
     0.375000000         0.680718303         0.199670002
     0.375000000         0.847384989         0.199670002
     0.458333343         0.014051670         0.199670002
     0.458333343         0.180718333         0.199670002
     0.458333343         0.347384989         0.199670002
     0.458333343         0.514051676         0.199670002
     0.458333343         0.680718303         0.199670002
     0.458333343         0.847384989         0.199670002
     0.541666687         0.014051670         0.199670002
     0.541666687         0.180718333         0.199670002
     0.541666687         0.347384989         0.199670002
     0.541666687         0.514051676         0.199670002
     0.541666687         0.680718303         0.199670002
     0.541666687         0.847384989         0.199670002
     0.625000000         0.014051670         0.199670002
     0.625000000         0.180718333         0.199670002
     0.625000000         0.347384989         0.199670002
     0.625000000         0.514051676         0.199670002
     0.625000000         0.680718303         0.199670002
     0.625000000         0.847384989         0.199670002
     0.708333313         0.014051670         0.199670002
     0.708333313         0.180718333         0.199670002
     0.708333313         0.347384989         0.199670002
     0.708333313         0.514051676         0.199670002
     0.708333313         0.680718303         0.199670002
     0.708333313         0.847384989         0.199670002
     0.791666687         0.014051670         0.199670002
     0.791666687         0.180718333         0.199670002
     0.791666687         0.347384989         0.199670002
     0.791666687         0.514051676         0.199670002
     0.791666687         0.680718303         0.199670002
     0.791666687         0.847384989         0.199670002
     0.875000000         0.014051670         0.199670002
     0.875000000         0.180718333         0.199670002
     0.875000000         0.347384989         0.199670002
     0.875000000         0.514051676         0.199670002
     0.875000000         0.680718303         0.199670002
     0.875000000         0.847384989         0.199670002
     0.958333313         0.014051670         0.199670002
     0.958333313         0.180718333         0.199670002
     0.958333313         0.347384989         0.199670002
     0.958333313         0.514051676         0.199670002
     0.958333313         0.680718303         0.199670002
     0.958333313         0.847384989         0.199670002
     0.041666672         0.152614996         0.270539999
     0.041666672         0.319281667         0.270539999
     0.041666672         0.485948324         0.270539999
     0.041666672         0.652615011         0.270539999
     0.041666672         0.819281697         0.270539999
     0.041666672         0.985948324         0.270539999
     0.125000000         0.152614996         0.270539999
     0.125000000         0.319281667         0.270539999
     0.125000000         0.485948324         0.270539999
     0.125000000         0.652615011         0.270539999
     0.125000000         0.819281697         0.270539999
     0.125000000         0.985948324         0.270539999
     0.208333328         0.152614996         0.270539999
     0.208333328         0.319281667         0.270539999
     0.208333328         0.485948324         0.270539999
     0.208333328         0.652615011         0.270539999
     0.208333328         0.819281697         0.270539999
     0.208333328         0.985948324         0.270539999
     0.291666657         0.152614996         0.270539999
     0.291666657         0.319281667         0.270539999
     0.291666657         0.485948324         0.270539999
     0.291666657         0.652615011         0.270539999
     0.291666657         0.819281697         0.270539999
     0.291666657         0.985948324         0.270539999
     0.375000000         0.152614996         0.270539999
     0.375000000         0.319281667         0.270539999
     0.375000000         0.485948324         0.270539999
     0.375000000         0.652615011         0.270539999
     0.375000000         0.819281697         0.270539999
     0.375000000         0.985948324         0.270539999
     0.458333343         0.152614996         0.270539999
     0.458333343         0.319281667         0.270539999
     0.458333343         0.485948324         0.270539999
     0.458333343         0.652615011         0.270539999
     0.458333343         0.819281697         0.270539999
     0.458333343         0.985948324         0.270539999
     0.541666687         0.152614996         0.270539999
     0.541666687         0.319281667         0.270539999
     0.541666687         0.485948324         0.270539999
     0.541666687         0.652615011         0.270539999
     0.541666687         0.819281697         0.270539999
     0.541666687         0.985948324         0.270539999
     0.625000000         0.152614996         0.270539999
     0.625000000         0.319281667         0.270539999
     0.625000000         0.485948324         0.270539999
     0.625000000         0.652615011         0.270539999
     0.625000000         0.819281697         0.270539999
     0.625000000         0.985948324         0.270539999
     0.708333313         0.152614996         0.270539999
     0.708333313         0.319281667         0.270539999
     0.708333313         0.485948324         0.270539999
     0.708333313         0.652615011         0.270539999
     0.708333313         0.819281697         0.270539999
     0.708333313         0.985948324         0.270539999
     0.791666687         0.152614996         0.270539999
     0.791666687         0.319281667         0.270539999
     0.791666687         0.485948324         0.270539999
     0.791666687         0.652615011         0.270539999
     0.791666687         0.819281697         0.270539999
     0.791666687         0.985948324         0.270539999
     0.875000000         0.152614996         0.270539999
     0.875000000         0.319281667         0.270539999
     0.875000000         0.485948324         0.270539999
     0.875000000         0.652615011         0.270539999
     0.875000000         0.819281697         0.270539999
     0.875000000         0.985948324         0.270539999
     0.958333313         0.152614996         0.270539999
     0.958333313         0.319281667         0.270539999
     0.958333313         0.485948324         0.270539999
     0.958333313         0.652615011         0.270539999
     0.958333313         0.819281697         0.270539999
     0.958333313         0.985948324         0.270539999
     0.991995752         0.096050963         0.448076665
     0.074187532         0.109749593         0.448076665
     0.060488898         0.274133146         0.448076665
     0.046790268         0.438516706         0.448076665
     0.033091638         0.602900267         0.448076665
     0.019393010         0.767283857         0.448076665
     0.005694380         0.931667387         0.448076665
     0.156379327         0.123448223         0.448076665
     0.142680690         0.287831783         0.448076665
     0.128982052         0.452215344         0.448076665
     0.115283422         0.616598904         0.448076665
     0.101584792         0.780982435         0.448076665
     0.087886162         0.945366025         0.448076665
     0.238571107         0.137146845         0.448076665
     0.224872470         0.301530421         0.448076665
     0.211173847         0.465913981         0.448076665
     0.197475210         0.630297542         0.448076665
     0.183776587         0.794681072         0.448076665
     0.170077950         0.959064662         0.448076665
     0.320762873         0.150845483         0.448076665
     0.307064235         0.315229028         0.448076665
     0.293365628         0.479612589         0.448076665
     0.279666990         0.643996179         0.448076665
     0.265968353         0.808379710         0.448076665
     0.252269745         0.972763300         0.448076665
     0.402954668         0.164544106         0.448076665
     0.389256030         0.328927666         0.448076665
     0.375557393         0.493311226         0.448076665
     0.361858755         0.657694817         0.448076665
     0.348160148         0.822078347         0.448076665
     0.334461510         0.986461937         0.448076665
     0.485146433         0.178242743         0.448076665
     0.471447796         0.342626303         0.448076665
     0.457749188         0.507009864         0.448076665
     0.444050550         0.671393394         0.448076665
     0.430351913         0.835776985         0.448076665
     0.416653275         0.000160575         0.448076665
     0.567338228         0.191941366         0.448076665
     0.553639591         0.356324941         0.448076665
     0.539940953         0.520708501         0.448076665
     0.526242316         0.685092032         0.448076665
     0.512543678         0.849475622         0.448076665
     0.498845071         0.013859153         0.448076665
     0.649529994         0.205640003         0.448076665
     0.635831356         0.370023549         0.448076665
     0.622132719         0.534407139         0.448076665
     0.608434081         0.698790669         0.448076665
     0.594735503         0.863174260         0.448076665
     0.581036866         0.027557850         0.448076665
     0.731721759         0.219338626         0.448076665
     0.718023121         0.383722186         0.448076665
     0.704324543         0.548105776         0.448076665
     0.690625906         0.712489307         0.448076665
     0.676927269         0.876872897         0.448076665
     0.663228631         0.041256428         0.448076665
     0.813913584         0.233037263         0.448076665
     0.800214946         0.397420824         0.448076665
     0.786516309         0.561804354         0.448076665
     0.772817671         0.726187944         0.448076665
     0.759119034         0.890571535         0.448076665
     0.745420396         0.054955125         0.448076665
     0.896105349         0.246735886         0.448076665
     0.882406712         0.411119461         0.448076665
     0.868708074         0.575502992         0.448076665
     0.855009437         0.739886582         0.448076665
     0.841310799         0.904270113         0.448076665
     0.827612162         0.068653703         0.448076665
     0.978297114         0.260434508         0.448076665
     0.964598477         0.424818069         0.448076665
     0.950899839         0.589201629         0.448076665
     0.937201202         0.753585219         0.448076665
     0.923502624         0.917968750         0.448076665
     0.909803987         0.082352281         0.448076665
     0.994305611         0.068332598         0.377206683
     0.076497398         0.082031228         0.377206683
     0.062798768         0.246414796         0.377206683
     0.049100138         0.410798371         0.377206683
     0.035401508         0.575181901         0.377206683
     0.021702880         0.739565492         0.377206683
     0.008004250         0.903949022         0.377206683
     0.158689186         0.095729858         0.377206683
     0.144990548         0.260113418         0.377206683
     0.131291926         0.424496979         0.377206683
     0.117593288         0.588880539         0.377206683
     0.103894658         0.753264129         0.377206683
     0.090196028         0.917647660         0.377206683
     0.240880966         0.109428488         0.377206683
     0.227182329         0.273812056         0.377206683
     0.213483706         0.438195616         0.377206683
     0.199785069         0.602579176         0.377206683
     0.186086446         0.766962767         0.377206683
     0.172387809         0.931346297         0.377206683
     0.323072731         0.123127118         0.377206683
     0.309374124         0.287510693         0.377206683
     0.295675486         0.451894253         0.377206683
     0.281976849         0.616277814         0.377206683
     0.268278211         0.780661345         0.377206683
     0.254579604         0.945044935         0.377206683
     0.405264527         0.136825755         0.377206683
     0.391565889         0.301209331         0.377206683
     0.377867252         0.465592891         0.377206683
     0.364168644         0.629976451         0.377206683
     0.350470006         0.794359982         0.377206683
     0.336771369         0.958743572         0.377206683
     0.487456292         0.150524378         0.377206683
     0.473757684         0.314907938         0.377206683
     0.460059047         0.479291499         0.377206683
     0.446360409         0.643675089         0.377206683
     0.432661772         0.808058619         0.377206683
     0.418963164         0.972442210         0.377206683
     0.569648087         0.164223015         0.377206683
     0.555949450         0.328606576         0.377206683
     0.542250812         0.492990136         0.377206683
     0.528552175         0.657373726         0.377206683
     0.514853537         0.821757257         0.377206683
     0.501154959         0.986140847         0.377206683
     0.651839852         0.177921638         0.377206683
     0.638141215         0.342305213         0.377206683
     0.624442577         0.506688774         0.377206683
     0.610743999         0.671072304         0.377206683
     0.597045362         0.835455894         0.377206683
     0.583346725         0.999839425         0.377206683
     0.734031618         0.191620275         0.377206683
     0.720333040         0.356003851         0.377206683
     0.706634402         0.520387411         0.377206683
     0.692935765         0.684770942         0.377206683
     0.679237127         0.849154532         0.377206683
     0.665538490         0.013538122         0.377206683
     0.816223443         0.205318898         0.377206683
     0.802524805         0.369702458         0.377206683
     0.788826168         0.534086049         0.377206683
     0.775127530         0.698469579         0.377206683
     0.761428893         0.862853169         0.377206683
     0.747730255         0.027236700         0.377206683
     0.898415208         0.219017535         0.377206683
     0.884716570         0.383401096         0.377206683
     0.871017933         0.547784686         0.377206683
     0.857319295         0.712168217         0.377206683
     0.843620658         0.876551807         0.377206683
     0.829922020         0.040935397         0.377206683
     0.980606973         0.232716173         0.377206683
     0.966908336         0.397099733         0.377206683
     0.953209758         0.561483264         0.377206683
     0.939511120         0.725866854         0.377206683
     0.925812483         0.890250385         0.377206683
     0.912113845         0.054633975         0.377206683
     0.039940961         0.020708490         0.377206683
     0.122132741         0.034407120         0.377206683
     0.108434111         0.198790684         0.377206683
     0.094735481         0.363174260         0.377206683
     0.081036851         0.527557790         0.377206683
     0.067338221         0.691941381         0.377206683
     0.053639591         0.856324911         0.377206683
     0.204324514         0.048105750         0.377206683
     0.190625891         0.212489322         0.377206683
     0.176927254         0.376872867         0.377206683
     0.163228631         0.541256428         0.377206683
     0.149529994         0.705640018         0.377206683
     0.135831371         0.870023549         0.377206683
     0.286516309         0.061804380         0.377206683
     0.272817671         0.226187944         0.377206683
     0.259119034         0.390571505         0.377206683
     0.245420411         0.554955065         0.377206683
     0.231721774         0.719338655         0.377206683
     0.218023151         0.883722186         0.377206683
     0.368708074         0.075503007         0.377206683
     0.355009437         0.239886582         0.377206683
     0.341310829         0.404270142         0.377206683
     0.327612191         0.568653703         0.377206683
     0.313913554         0.733037233         0.377206683
     0.300214916         0.897420824         0.377206683
     0.450899869         0.089201637         0.377206683
     0.437201232         0.253585219         0.377206683
     0.423502594         0.417968780         0.377206683
     0.409803957         0.582352340         0.377206683
     0.396105349         0.746735871         0.377206683
     0.382406712         0.911119461         0.377206683
     0.533091664         0.102900267         0.377206683
     0.519393027         0.267283827         0.377206683
     0.505694389         0.431667387         0.377206683
     0.491995752         0.596050978         0.377206683
     0.478297114         0.760434508         0.377206683
     0.464598477         0.924818099         0.377206683
     0.615283430         0.116598897         0.377206683
     0.601584792         0.280982465         0.377206683
     0.587886155         0.445366025         0.377206683
     0.574187517         0.609749615         0.377206683
     0.560488880         0.774133146         0.377206683
     0.546790242         0.938516736         0.377206683
     0.697475195         0.130297527         0.377206683
     0.683776557         0.294681102         0.377206683
     0.670077980         0.459064662         0.377206683
     0.656379342         0.623448193         0.377206683
     0.642680705         0.787831783         0.377206683
     0.628982067         0.952215314         0.377206683
     0.779666960         0.143996164         0.377206683
     0.765968382         0.308379740         0.377206683
     0.752269745         0.472763300         0.377206683
     0.738571107         0.637146831         0.377206683
     0.724872470         0.801530421         0.377206683
     0.711173832         0.965913951         0.377206683
     0.861858785         0.157694802         0.377206683
     0.848160148         0.322078347         0.377206683
     0.834461510         0.486461908         0.377206683
     0.820762873         0.650845468         0.377206683
     0.807064235         0.815229058         0.377206683
     0.793365598         0.979612589         0.377206683
     0.944050550         0.171393424         0.377206683
     0.930351913         0.335776985         0.377206683
     0.916653275         0.500160575         0.377206683
     0.902954638         0.664544106         0.377206683
     0.889256001         0.828927696         0.377206683
     0.875557423         0.993311226         0.377206683
     0.026242375         0.185092062         0.377206683
     0.012543678         0.349475622         0.377206683
     0.998845041         0.513859153         0.377206683
     0.985146463         0.678242743         0.377206683
     0.971447825         0.842626274         0.377206683
     0.957749188         0.007009864         0.377206683
     0.028552189         0.157373697         0.448076665
     0.110743970         0.171072334         0.448076665
     0.097045340         0.335455894         0.448076665
     0.083346710         0.499839455         0.448076665
     0.069648080         0.664223015         0.448076665
     0.055949450         0.828606606         0.448076665