Generated by Twist2D
    1.0
      56.31759882       0.00000000       0.00000000
       0.00000000      40.53059864       0.00000000
       0.00000000       0.00000000      30.00000000
    P
    1228
Direct
     0.00000000     0.06492333     0.27054000
     0.00000000     0.17603444     0.27054000
     0.00000000     0.28714555     0.27054000
     0.00000000     0.39825667     0.27054000
     0.00000000     0.50936778     0.27054000
     0.00000000     0.62047889     0.27054000
     0.00000000     0.73159000     0.27054000
     0.00000000     0.84270111     0.27054000
     0.00000000     0.95381222     0.27054000
     0.05882353     0.06492333     0.27054000
     0.05882353     0.17603444     0.27054000
     0.05882353     0.28714555     0.27054000
     0.05882353     0.39825667     0.27054000
     0.05882353     0.50936778     0.27054000
     0.05882353     0.62047889     0.27054000
     0.05882353     0.73159000     0.27054000
     0.05882353     0.84270111     0.27054000
     0.05882353     0.95381222     0.27054000
     0.11764706     0.06492333     0.27054000
     0.11764706     0.17603444     0.27054000
     0.11764706     0.28714555     0.27054000
     0.11764706     0.39825667     0.27054000
     0.11764706     0.50936778     0.27054000
     0.11764706     0.62047889     0.27054000
     0.11764706     0.73159000     0.27054000
     0.11764706     0.84270111     0.27054000
     0.11764706     0.95381222     0.27054000
     0.17647059     0.06492333     0.27054000
     0.17647059     0.17603444     0.27054000
     0.17647059     0.28714555     0.27054000
     0.17647059     0.39825667     0.27054000
     0.17647059     0.50936778     0.27054000
     0.17647059     0.62047889     0.27054000
     0.17647059     0.73159000     0.27054000
     0.17647059     0.84270111     0.27054000
     0.17647059     0.95381222     0.27054000
     0.23529412     0.06492333     0.27054000
     0.23529412     0.17603444     0.27054000
     0.23529412     0.28714555     0.27054000
     0.23529412     0.39825667     0.27054000
     0.23529412     0.50936778     0.27054000
     0.23529412     0.62047889     0.27054000
     0.23529412     0.73159000     0.27054000
     0.23529412     0.84270111     0.27054000
     0.23529412     0.95381222     0.27054000
     0.29411765     0.06492333     0.27054000
     0.29411765     0.17603444     0.27054000
     0.29411765     0.28714555     0.27054000
     0.29411765     0.39825667     0.27054000
     0.29411765     0.50936778     0.27054000
     0.29411765     0.62047889     0.27054000
     0.29411765     0.73159000     0.27054000
     0.29411765     0.84270111     0.27054000
     0.29411765     0.95381222     0.27054000
     0.35294118     0.06492333     0.27054000
     0.35294118     0.17603444     0.27054000
     0.35294118     0.28714555     0.27054000
     0.35294118     0.39825667     0.27054000
     0.35294118     0.50936778     0.27054000
     0.35294118     0.62047889     0.27054000
     0.35294118     0.73159000     0.27054000
     0.35294118     0.84270111     0.27054000
     0.35294118     0.95381222     0.27054000
     0.41176471     0.06492333     0.27054000
     0.41176471     0.17603444     0.27054000
     0.41176471     0.28714555     0.27054000
     0.41176471     0.39825667     0.27054000
     0.41176471     0.50936778     0.27054000
     0.41176471     0.62047889     0.27054000
     0.41176471     0.73159000     0.27054000
     0.41176471     0.84270111     0.27054000
     0.41176471     0.95381222     0.27054000
     0.47058824     0.06492333     0.27054000
     0.47058824     0.17603444     0.27054000
     0.47058824     0.28714555     0.27054000
     0.47058824     0.39825667     0.27054000
     0.47058824     0.50936778     0.27054000
     0.47058824     0.62047889     0.27054000
     0.47058824     0.73159000     0.27054000
     0.47058824     0.84270111     0.27054000
     0.47058824     0.95381222     0.27054000
     0.52941176     0.06492333     0.27054000
     0.52941176     0.17603444     0.27054000
     0.52941176     0.28714555     0.27054000
     0.52941176     0.39825667     0.27054000
     0.52941176     0.50936778     0.27054000
     0.52941176     0.62047889     0.27054000
     0.52941176     0.73159000     0.27054000
     0.52941176     0.84270111     0.27054000
     0.52941176     0.95381222     0.27054000
     0.58823529     0.06492333     0.27054000
     0.58823529     0.17603444     0.27054000
     0.58823529     0.28714555     0.27054000
     0.58823529     0.39825667     0.27054000
     0.58823529     0.50936778     0.27054000
     0.58823529     0.62047889     0.27054000
     0.58823529     0.73159000     0.27054000
     0.58823529     0.84270111     0.27054000
     0.58823529     0.95381222     0.27054000
     0.64705882     0.06492333     0.27054000
     0.64705882     0.17603444     0.27054000
     0.64705882     0.28714555     0.27054000
     0.64705882     0.39825667     0.27054000
     0.64705882     0.50936778     0.27054000
     0.64705882     0.62047889     0.27054000
     0.64705882     0.73159000     0.27054000
     0.64705882     0.84270111     0.27054000
     0.64705882     0.95381222     0.27054000
     0.70588235     0.06492333     0.27054000
     0.70588235     0.17603444     0.27054000
     0.70588235     0.28714555     0.27054000
     0.70588235     0.39825667     0.27054000
     0.70588235     0.50936778     0.27054000
     0.70588235     0.62047889     0.27054000
     0.70588235     0.73159000     0.27054000
     0.70588235     0.84270111     0.27054000
     0.70588235     0.95381222     0.27054000
     0.76470588     0.06492333     0.27054000
     0.76470588     0.17603444     0.27054000
     0.76470588     0.28714555     0.27054000
     0.76470588     0.39825667     0.27054000
     0.76470588     0.50936778     0.27054000
     0.76470588     0.62047889     0.27054000
     0.76470588     0.73159000     0.27054000
     0.76470588     0.84270111     0.27054000
     0.76470588     0.95381222     0.27054000
     0.82352941     0.06492333     0.27054000
     0.82352941     0.17603444     0.27054000
     0.82352941     0.28714555     0.27054000
     0.82352941     0.39825667     0.27054000
     0.82352941     0.50936778     0.27054000
     0.82352941     0.62047889     0.27054000
     0.82352941     0.73159000     0.27054000
     0.82352941     0.84270111     0.27054000
     0.82352941     0.95381222     0.27054000
     0.88235294     0.06492333     0.27054000
     0.88235294     0.17603444     0.27054000
     0.88235294     0.28714555     0.27054000
     0.88235294     0.39825667     0.27054000
     0.88235294     0.50936778     0.27054000
     0.88235294     0.62047889     0.27054000
     0.88235294     0.73159000     0.27054000
     0.88235294     0.84270111     0.27054000
     0.88235294     0.95381222     0.27054000
     0.94117647     0.06492333     0.27054000
     0.94117647     0.17603444     0.27054000
     0.94117647     0.28714555     0.27054000
     0.94117647     0.39825667     0.27054000
     0.94117647     0.50936778     0.27054000
     0.94117647     0.62047889     0.27054000
     0.94117647     0.73159000     0.27054000
     0.94117647     0.84270111     0.27054000
     0.94117647     0.95381222     0.27054000
     0.00000000     0.04618778     0.19967000
     0.00000000     0.15729889     0.19967000
     0.00000000     0.26841000     0.19967000
     0.00000000     0.37952111     0.19967000
     0.00000000     0.49063222     0.19967000
     0.00000000     0.60174333     0.19967000
     0.00000000     0.71285444     0.19967000
     0.00000000     0.82396556     0.19967000
     0.00000000     0.93507667     0.19967000
     0.05882353     0.04618778     0.19967000
     0.05882353     0.15729889     0.19967000
     0.05882353     0.26841000     0.19967000
     0.05882353     0.37952111     0.19967000
     0.05882353     0.49063222     0.19967000
     0.05882353     0.60174333     0.19967000
     0.05882353     0.71285444     0.19967000
     0.05882353     0.82396556     0.19967000
     0.05882353     0.93507667     0.19967000
     0.11764706     0.04618778     0.19967000
     0.11764706     0.15729889     0.19967000
     0.11764706     0.26841000     0.19967000
     0.11764706     0.37952111     0.19967000
     0.11764706     0.49063222     0.19967000
     0.11764706     0.60174333     0.19967000
     0.11764706     0.71285444     0.19967000
     0.11764706     0.82396556     0.19967000
     0.11764706     0.93507667     0.19967000
     0.17647059     0.04618778     0.19967000
     0.17647059     0.15729889     0.19967000
     0.17647059     0.26841000     0.19967000
     0.17647059     0.37952111     0.19967000
     0.17647059     0.49063222     0.19967000
     0.17647059     0.60174333     0.19967000
     0.17647059     0.71285444     0.19967000
     0.17647059     0.82396556     0.19967000
     0.17647059     0.93507667     0.19967000
     0.23529412     0.04618778     0.19967000
     0.23529412     0.15729889     0.19967000
     0.23529412     0.26841000     0.19967000
     0.23529412     0.37952111     0.19967000
     0.23529412     0.49063222     0.19967000
     0.23529412     0.60174333     0.19967000
     0.23529412     0.71285444     0.19967000
     0.23529412     0.82396556     0.19967000
     0.23529412     0.93507667     0.19967000
     0.29411765     0.04618778     0.19967000
     0.29411765     0.15729889     0.19967000
     0.29411765     0.26841000     0.19967000
     0.29411765     0.37952111     0.19967000
     0.29411765     0.49063222     0.19967000
     0.29411765     0.60174333     0.19967000
     0.29411765     0.71285444     0.19967000
     0.29411765     0.82396556     0.19967000
     0.29411765     0.93507667     0.19967000
     0.35294118     0.04618778     0.19967000
     0.35294118     0.15729889     0.19967000
     0.35294118     0.26841000     0.19967000
     0.35294118     0.37952111     0.19967000
     0.35294118     0.49063222     0.19967000
     0.35294118     0.60174333     0.19967000
     0.35294118     0.71285444     0.19967000
     0.35294118     0.82396556     0.19967000
     0.35294118     0.93507667     0.19967000
     0.41176471     0.04618778     0.19967000
     0.41176471     0.15729889     0.19967000
     0.41176471     0.26841000     0.19967000
     0.41176471     0.37952111     0.19967000
     0.41176471     0.49063222     0.19967000
     0.41176471     0.60174333     0.19967000
     0.41176471     0.71285444     0.19967000
     0.41176471     0.82396556     0.19967000
     0.41176471     0.93507667     0.19967000
     0.47058824     0.04618778     0.19967000
     0.47058824     0.15729889     0.19967000
     0.47058824     0.26841000     0.19967000
     0.47058824     0.37952111     0.19967000
     0.47058824     0.49063222     0.19967000
     0.47058824     0.60174333     0.19967000
     0.47058824     0.71285444     0.19967000
     0.47058824     0.82396556     0.19967000
     0.47058824     0.93507667     0.19967000
     0.52941176     0.04618778     0.19967000
     0.52941176     0.15729889     0.19967000
     0.52941176     0.26841000     0.19967000
     0.52941176     0.37952111     0.19967000
     0.52941176     0.49063222     0.19967000
     0.52941176     0.60174333     0.19967000
     0.52941176     0.71285444     0.19967000
     0.52941176     0.82396556     0.19967000
     0.52941176     0.93507667     0.19967000
     0.58823529     0.04618778     0.19967000
     0.58823529     0.15729889     0.19967000
     0.58823529     0.26841000     0.19967000
     0.58823529     0.37952111     0.19967000
     0.58823529     0.49063222     0.19967000
     0.58823529     0.60174333     0.19967000
     0.58823529     0.71285444     0.19967000
     0.58823529     0.82396556     0.19967000
     0.58823529     0.93507667     0.19967000
     0.64705882     0.04618778     0.19967000
     0.64705882     0.15729889     0.19967000
     0.64705882     0.26841000     0.19967000
     0.64705882     0.37952111     0.19967000
     0.64705882     0.49063222     0.19967000
     0.64705882     0.60174333     0.19967000
     0.64705882     0.71285444     0.19967000
     0.64705882     0.82396556     0.19967000
     0.64705882     0.93507667     0.19967000
     0.70588235     0.04618778     0.19967000
     0.70588235     0.15729889     0.19967000
     0.70588235     0.26841000     0.19967000
     0.70588235     0.37952111     0.19967000
     0.70588235     0.49063222     0.19967000
     0.70588235     0.60174333     0.19967000
     0.70588235     0.71285444     0.19967000
     0.70588235     0.82396556     0.19967000
     0.70588235     0.93507667     0.19967000
     0.76470588     0.04618778     0.19967000
     0.76470588     0.15729889     0.19967000
     0.76470588     0.26841000     0.19967000
     0.76470588     0.37952111     0.19967000
     0.76470588     0.49063222     0.19967000
     0.76470588     0.60174333     0.19967000
     0.76470588     0.71285444     0.19967000
     0.76470588     0.82396556     0.19967000
     0.76470588     0.93507667     0.19967000
     0.82352941     0.04618778     0.19967000
     0.82352941     0.15729889     0.19967000
     0.82352941     0.26841000     0.19967000
     0.82352941     0.37952111     0.19967000
     0.82352941     0.49063222     0.19967000
     0.82352941     0.60174333     0.19967000
     0.82352941     0.71285444     0.19967000
     0.82352941     0.82396556     0.19967000
     0.82352941     0.93507667     0.19967000
     0.88235294     0.04618778     0.19967000
     0.88235294     0.15729889     0.19967000
     0.88235294     0.26841000     0.19967000
     0.88235294     0.37952111     0.19967000
     0.88235294     0.49063222     0.19967000
     0.88235294     0.60174333     0.19967000
     0.88235294     0.71285444     0.19967000
     0.88235294     0.82396556     0.19967000
     0.88235294     0.93507667     0.19967000
     0.94117647     0.04618778     0.19967000
     0.94117647     0.15729889     0.19967000
     0.94117647     0.26841000     0.19967000
     0.94117647     0.37952111     0.19967000
     0.94117647     0.49063222     0.19967000
     0.94117647     0.60174333     0.19967000
     0.94117647     0.71285444     0.19967000
     0.94117647     0.82396556     0.19967000
     0.94117647     0.93507667     0.19967000
     0.02941176     0.00936778     0.19967000
     0.02941176     0.12047889     0.19967000
     0.02941176     0.23159000     0.19967000
     0.02941176     0.34270111     0.19967000
     0.02941176     0.45381222     0.19967000
     0.02941176     0.56492333     0.19967000
     0.02941176     0.67603444     0.19967000
     0.02941176     0.78714556     0.19967000
     0.02941176     0.89825667     0.19967000
     0.08823529     0.00936778     0.19967000
     0.08823529     0.12047889     0.19967000
     0.08823529     0.23159000     0.19967000
     0.08823529     0.34270111     0.19967000
     0.08823529     0.45381222     0.19967000
     0.08823529     0.56492333     0.19967000
     0.08823529     0.67603444     0.19967000
     0.08823529     0.78714556     0.19967000
     0.08823529     0.89825667     0.19967000
     0.14705882     0.00936778     0.19967000
     0.14705882     0.12047889     0.19967000
     0.14705882     0.23159000     0.19967000
     0.14705882     0.34270111     0.19967000
     0.14705882     0.45381222     0.19967000
     0.14705882     0.56492333     0.19967000
     0.14705882     0.67603444     0.19967000
     0.14705882     0.78714556     0.19967000
     0.14705882     0.89825667     0.19967000
     0.20588235     0.00936778     0.19967000
     0.20588235     0.12047889     0.19967000
     0.20588235     0.23159000     0.19967000
     0.20588235     0.34270111     0.19967000
     0.20588235     0.45381222     0.19967000
     0.20588235     0.56492333     0.19967000
     0.20588235     0.67603444     0.19967000
     0.20588235     0.78714556     0.19967000
     0.20588235     0.89825667     0.19967000
     0.26470588     0.00936778     0.19967000
     0.26470588     0.12047889     0.19967000
     0.26470588     0.23159000     0.19967000
     0.26470588     0.34270111     0.19967000
     0.26470588     0.45381222     0.19967000
     0.26470588     0.56492333     0.19967000
     0.26470588     0.67603444     0.19967000
     0.26470588     0.78714556     0.19967000
     0.26470588     0.89825667     0.19967000
     0.32352941     0.00936778     0.19967000
     0.32352941     0.12047889     0.19967000
     0.32352941     0.23159000     0.19967000
     0.32352941     0.34270111     0.19967000
     0.32352941     0.45381222     0.19967000
     0.32352941     0.56492333     0.19967000
     0.32352941     0.67603444     0.19967000
     0.32352941     0.78714556     0.19967000
     0.32352941     0.89825667     0.19967000
     0.38235294     0.00936778     0.19967000
     0.38235294     0.12047889     0.19967000
     0.38235294     0.23159000     0.19967000
     0.38235294     0.34270111     0.19967000
     0.38235294     0.45381222     0.19967000
     0.38235294     0.56492333     0.19967000
     0.38235294     0.67603444     0.19967000
     0.38235294     0.78714556     0.19967000
     0.38235294     0.89825667     0.19967000
     0.44117647     0.00936778     0.19967000
     0.44117647     0.12047889     0.19967000
     0.44117647     0.23159000     0.19967000
     0.44117647     0.34270111     0.19967000
     0.44117647     0.45381222     0.19967000
     0.44117647     0.56492333     0.19967000
     0.44117647     0.67603444     0.19967000
     0.44117647     0.78714556     0.19967000
     0.44117647     0.89825667     0.19967000
     0.50000000     0.00936778     0.19967000
     0.50000000     0.12047889     0.19967000
     0.50000000     0.23159000     0.19967000
     0.50000000     0.34270111     0.19967000
     0.50000000     0.45381222     0.19967000
     0.50000000     0.56492333     0.19967000
     0.50000000     0.67603444     0.19967000
     0.50000000     0.78714556     0.19967000
     0.50000000     0.89825667     0.19967000
     0.55882353     0.00936778     0.19967000
     0.55882353     0.12047889     0.19967000
     0.55882353     0.23159000     0.19967000
     0.55882353     0.34270111     0.19967000
     0.55882353     0.45381222     0.19967000
     0.55882353     0.56492333     0.19967000
     0.55882353     0.67603444     0.19967000
     0.55882353     0.78714556     0.19967000
     0.55882353     0.89825667     0.19967000
     0.61764706     0.00936778     0.19967000
     0.61764706     0.12047889     0.19967000
     0.61764706     0.23159000     0.19967000
     0.61764706     0.34270111     0.19967000
     0.61764706     0.45381222     0.19967000
     0.61764706     0.56492333     0.19967000
     0.61764706     0.67603444     0.19967000
     0.61764706     0.78714556     0.19967000
     0.61764706     0.89825667     0.19967000
     0.67647059     0.00936778     0.19967000
     0.67647059     0.12047889     0.19967000
     0.67647059     0.23159000     0.19967000
     0.67647059     0.34270111     0.19967000
     0.67647059     0.45381222     0.19967000
     0.67647059     0.56492333     0.19967000
     0.67647059     0.67603444     0.19967000
     0.67647059     0.78714556     0.19967000
     0.67647059     0.89825667     0.19967000
     0.73529412     0.00936778     0.19967000
     0.73529412     0.12047889     0.19967000
     0.73529412     0.23159000     0.19967000
     0.73529412     0.34270111     0.19967000
     0.73529412     0.45381222     0.19967000
     0.73529412     0.56492333     0.19967000
     0.73529412     0.67603444     0.19967000
     0.73529412     0.78714556     0.19967000
     0.73529412     0.89825667     0.19967000
     0.79411765     0.00936778     0.19967000
     0.79411765     0.12047889     0.19967000
     0.79411765     0.23159000     0.19967000
     0.79411765     0.34270111     0.19967000
     0.79411765     0.45381222     0.19967000
     0.79411765     0.56492333     0.19967000
     0.79411765     0.67603444     0.19967000
     0.79411765     0.78714556     0.19967000
     0.79411765     0.89825667     0.19967000
     0.85294118     0.00936778     0.19967000
     0.85294118     0.12047889     0.19967000
     0.85294118     0.23159000     0.19967000
     0.85294118     0.34270111     0.19967000
     0.85294118     0.45381222     0.19967000
     0.85294118     0.56492333     0.19967000
     0.85294118     0.67603444     0.19967000
     0.85294118     0.78714556     0.19967000
     0.85294118     0.89825667     0.19967000
     0.91176471     0.00936778     0.19967000
     0.91176471     0.12047889     0.19967000
     0.91176471     0.23159000     0.19967000
     0.91176471     0.34270111     0.19967000
     0.91176471     0.45381222     0.19967000
     0.91176471     0.56492333     0.19967000
     0.91176471     0.67603444     0.19967000
     0.91176471     0.78714556     0.19967000
     0.91176471     0.89825667     0.19967000
     0.97058824     0.00936778     0.19967000
     0.97058824     0.12047889     0.19967000
     0.97058824     0.23159000     0.19967000
     0.97058824     0.34270111     0.19967000
     0.97058824     0.45381222     0.19967000
     0.97058824     0.56492333     0.19967000
     0.97058824     0.67603444     0.19967000
     0.97058824     0.78714556     0.19967000
     0.97058824     0.89825667     0.19967000
     0.02941176     0.10174333     0.27054000
     0.02941176     0.21285445     0.27054000
     0.02941176     0.32396556     0.27054000
     0.02941176     0.43507667     0.27054000
     0.02941176     0.54618778     0.27054000
     0.02941176     0.65729889     0.27054000
     0.02941176     0.76841000     0.27054000
     0.02941176     0.87952111     0.27054000
     0.02941176     0.99063222     0.27054000
     0.08823529     0.10174333     0.27054000
     0.08823529     0.21285445     0.27054000
     0.08823529     0.32396556     0.27054000
     0.08823529     0.43507667     0.27054000
     0.08823529     0.54618778     0.27054000
     0.08823529     0.65729889     0.27054000
     0.08823529     0.76841000     0.27054000
     0.08823529     0.87952111     0.27054000
     0.08823529     0.99063222     0.27054000
     0.14705882     0.10174333     0.27054000
     0.14705882     0.21285445     0.27054000
     0.14705882     0.32396556     0.27054000
     0.14705882     0.43507667     0.27054000
     0.14705882     0.54618778     0.27054000
     0.14705882     0.65729889     0.27054000
     0.14705882     0.76841000     0.27054000
     0.14705882     0.87952111     0.27054000
     0.14705882     0.99063222     0.27054000
     0.20588235     0.10174333     0.27054000
     0.20588235     0.21285445     0.27054000
     0.20588235     0.32396556     0.27054000
     0.20588235     0.43507667     0.27054000
     0.20588235     0.54618778     0.27054000
     0.20588235     0.65729889     0.27054000
     0.20588235     0.76841000     0.27054000
     0.20588235     0.87952111     0.27054000
     0.20588235     0.99063222     0.27054000
     0.26470588     0.10174333     0.27054000
     0.26470588     0.21285445     0.27054000
     0.26470588     0.32396556     0.27054000
     0.26470588     0.43507667     0.27054000
     0.26470588     0.54618778     0.27054000
     0.26470588     0.65729889     0.27054000
     0.26470588     0.76841000     0.27054000
     0.26470588     0.87952111     0.27054000
     0.26470588     0.99063222     0.27054000
     0.32352941     0.10174333     0.27054000
     0.32352941     0.21285445     0.27054000
     0.32352941     0.32396556     0.27054000
     0.32352941     0.43507667     0.27054000
     0.32352941     0.54618778     0.27054000
     0.32352941     0.65729889     0.27054000
     0.32352941     0.76841000     0.27054000
     0.32352941     0.87952111     0.27054000
     0.32352941     0.99063222     0.27054000
     0.38235294     0.10174333     0.27054000
     0.38235294     0.21285445     0.27054000
     0.38235294     0.32396556     0.27054000
     0.38235294     0.43507667     0.27054000
     0.38235294     0.54618778     0.27054000
     0.38235294     0.65729889     0.27054000
     0.38235294     0.76841000     0.27054000
     0.38235294     0.87952111     0.27054000
     0.38235294     0.99063222     0.27054000
     0.44117647     0.10174333     0.27054000
     0.44117647     0.21285445     0.27054000
     0.44117647     0.32396556     0.27054000
     0.44117647     0.43507667     0.27054000
     0.44117647     0.54618778     0.27054000
     0.44117647     0.65729889     0.27054000
     0.44117647     0.76841000     0.27054000
     0.44117647     0.87952111     0.27054000
     0.44117647     0.99063222     0.27054000
     0.50000000     0.10174333     0.27054000
     0.50000000     0.21285445     0.27054000
     0.50000000     0.32396556     0.27054000
     0.50000000     0.43507667     0.27054000
     0.50000000     0.54618778     0.27054000
     0.50000000     0.65729889     0.27054000
     0.50000000     0.76841000     0.27054000
     0.50000000     0.87952111     0.27054000
     0.50000000     0.99063222     0.27054000
     0.55882353     0.10174333     0.27054000
     0.55882353     0.21285445     0.27054000
     0.55882353     0.32396556     0.27054000
     0.55882353     0.43507667     0.27054000
     0.55882353     0.54618778     0.27054000
     0.55882353     0.65729889     0.27054000
     0.55882353     0.76841000     0.27054000
     0.55882353     0.87952111     0.27054000
     0.55882353     0.99063222     0.27054000
     0.61764706     0.10174333     0.27054000
     0.61764706     0.21285445     0.27054000
     0.61764706     0.32396556     0.27054000
     0.61764706     0.43507667     0.27054000
     0.61764706     0.54618778     0.27054000
     0.61764706     0.65729889     0.27054000
     0.61764706     0.76841000     0.27054000
     0.61764706     0.87952111     0.27054000
     0.61764706     0.99063222     0.27054000
     0.67647059     0.10174333     0.27054000
     0.67647059     0.21285445     0.27054000
     0.67647059     0.32396556     0.27054000
     0.67647059     0.43507667     0.27054000
     0.67647059     0.54618778     0.27054000
     0.67647059     0.65729889     0.27054000
     0.67647059     0.76841000     0.27054000
     0.67647059     0.87952111     0.27054000
     0.67647059     0.99063222     0.27054000
     0.73529412     0.10174333     0.27054000
     0.73529412     0.21285445     0.27054000
     0.73529412     0.32396556     0.27054000
     0.73529412     0.43507667     0.27054000
     0.73529412     0.54618778     0.27054000
     0.73529412     0.65729889     0.27054000
     0.73529412     0.76841000     0.27054000
     0.73529412     0.87952111     0.27054000
     0.73529412     0.99063222     0.27054000
     0.79411765     0.10174333     0.27054000
     0.79411765     0.21285445     0.27054000
     0.79411765     0.32396556     0.27054000
     0.79411765     0.43507667     0.27054000
     0.79411765     0.54618778     0.27054000
     0.79411765     0.65729889     0.27054000
     0.79411765     0.76841000     0.27054000
     0.79411765     0.87952111     0.27054000
     0.79411765     0.99063222     0.27054000
     0.85294118     0.10174333     0.27054000
     0.85294118     0.21285445     0.27054000
     0.85294118     0.32396556     0.27054000
     0.85294118     0.43507667     0.27054000
     0.85294118     0.54618778     0.27054000
     0.85294118     0.65729889     0.27054000
     0.85294118     0.76841000     0.27054000
     0.85294118     0.87952111     0.27054000
     0.85294118     0.99063222     0.27054000
     0.91176471     0.10174333     0.27054000
     0.91176471     0.21285445     0.27054000
     0.91176471     0.32396556     0.27054000
     0.91176471     0.43507667     0.27054000
     0.91176471     0.54618778     0.27054000
     0.91176471     0.65729889     0.27054000
     0.91176471     0.76841000     0.27054000
     0.91176471     0.87952111     0.27054000
     0.91176471     0.99063222     0.27054000
     0.97058824     0.10174333     0.27054000
     0.97058824     0.21285445     0.27054000
     0.97058824     0.32396556     0.27054000
     0.97058824     0.43507667     0.27054000
     0.97058824     0.54618778     0.27054000
     0.97058824     0.65729889     0.27054000
     0.97058824     0.76841000     0.27054000
     0.97058824     0.87952111     0.27054000
     0.97058824     0.99063222     0.27054000
    -0.00379422     0.06450175     0.44807666
     0.05464734     0.07099526     0.44807666
     0.04815383     0.18138487     0.44807666
     0.04166032     0.29177448     0.44807666
     0.03516682     0.40216409     0.44807666
     0.02867331     0.51255370     0.44807666
     0.02217981     0.62294331     0.44807666
     0.01568630     0.73333292     0.44807666
     0.00919279     0.84372253     0.44807666
     0.00269929     0.95411214     0.44807666
     0.11308890     0.07748877     0.44807666
     0.10659539     0.18787838     0.44807666
     0.10010188     0.29826799     0.44807666
     0.09360838     0.40865760     0.44807666
     0.08711487     0.51904721     0.44807666
     0.08062136     0.62943682     0.44807666
     0.07412786     0.73982643     0.44807666
     0.06763435     0.85021604     0.44807666
     0.06114084     0.96060565     0.44807666
     0.17153045     0.08398227     0.44807666
     0.16503695     0.19437188     0.44807666