Generated by Twist2D
    1.0
      23.18959951       0.00000000       0.00000000
       0.00000000      18.01359940       0.00000000
       0.00000000       0.00000000      30.00000000
    P
    228
Direct
     0.07142857     0.14607750     0.27054000
     0.07142857     0.39607750     0.27054000
     0.07142857     0.64607750     0.27054000
     0.07142857     0.89607750     0.27054000
     0.21428571     0.14607750     0.27054000
     0.21428571     0.39607750     0.27054000
     0.21428571     0.64607750     0.27054000
     0.21428571     0.89607750     0.27054000
     0.35714286     0.14607750     0.27054000
     0.35714286     0.39607750     0.27054000
     0.35714286     0.64607750     0.27054000
     0.35714286     0.89607750     0.27054000
     0.50000000     0.14607750     0.27054000
     0.50000000     0.39607750     0.27054000
     0.50000000     0.64607750     0.27054000
     0.50000000     0.89607750     0.27054000
     0.64285714     0.14607750     0.27054000
     0.64285714     0.39607750     0.27054000
     0.64285714     0.64607750     0.27054000
     0.64285714     0.89607750     0.27054000
     0.78571429     0.14607750     0.27054000
     0.78571429     0.39607750     0.27054000
     0.78571429     0.64607750     0.27054000
     0.78571429     0.89607750     0.27054000
     0.92857143     0.14607750     0.27054000
     0.92857143     0.39607750     0.27054000
     0.92857143     0.64607750     0.27054000
     0.92857143     0.89607750     0.27054000
     0.07142857     0.10392250     0.19967000
     0.07142857     0.35392250     0.19967000
     0.07142857     0.60392250     0.19967000
     0.07142857     0.85392250     0.19967000
     0.21428571     0.10392250     0.19967000
     0.21428571     0.35392250     0.19967000
     0.21428571     0.60392250     0.19967000
     0.21428571     0.85392250     0.19967000
     0.35714286     0.10392250     0.19967000
     0.35714286     0.35392250     0.19967000
     0.35714286     0.60392250     0.19967000
     0.35714286     0.85392250     0.19967000
     0.50000000     0.10392250     0.19967000
     0.50000000     0.35392250     0.19967000
     0.50000000     0.60392250     0.19967000
     0.50000000     0.85392250     0.19967000
     0.64285714     0.10392250     0.19967000
     0.64285714     0.35392250     0.19967000
     0.64285714     0.60392250     0.19967000
     0.64285714     0.85392250     0.19967000
     0.78571429     0.10392250     0.19967000
     0.78571429     0.35392250     0.19967000
     0.78571429     0.60392250     0.19967000
     0.78571429     0.85392250     0.19967000
     0.92857143     0.10392250     0.19967000
     0.92857143     0.35392250     0.19967000
     0.92857143     0.60392250     0.19967000
     0.92857143     0.85392250     0.19967000
     0.14285714     0.02107750     0.19967000
     0.14285714     0.27107750     0.19967000
     0.14285714     0.52107750     0.19967000
     0.14285714     0.77107750     0.19967000
     0.28571429     0.02107750     0.19967000
     0.28571429     0.27107750     0.19967000
     0.28571429     0.52107750     0.19967000
     0.28571429     0.77107750     0.19967000
     0.42857143     0.02107750     0.19967000
     0.42857143     0.27107750     0.19967000
     0.42857143     0.52107750     0.19967000
     0.42857143     0.77107750     0.19967000
     0.57142857     0.02107750     0.19967000
     0.57142857     0.27107750     0.19967000
     0.57142857     0.52107750     0.19967000
     0.57142857     0.77107750     0.19967000
     0.71428571     0.02107750     0.19967000
     0.71428571     0.27107750     0.19967000
     0.71428571     0.52107750     0.19967000
     0.71428571     0.77107750     0.19967000
     0.85714286     0.02107750     0.19967000
     0.85714286     0.27107750     0.19967000
     0.85714286     0.52107750     0.19967000
     0.85714286     0.77107750     0.19967000
     1.00000000     0.02107750     0.19967000
     1.00000000     0.27107750     0.19967000
     1.00000000     0.52107750     0.19967000
     1.00000000     0.77107750     0.19967000
     0.14285714     0.22892250     0.27054000
     0.14285714     0.47892250     0.27054000
     0.14285714     0.72892250     0.27054000
     0.14285714     0.97892250     0.27054000
     0.28571429     0.22892250     0.27054000
     0.28571429     0.47892250     0.27054000
     0.28571429     0.72892250     0.27054000
     0.28571429     0.97892250     0.27054000
     0.42857143     0.22892250     0.27054000
     0.42857143     0.47892250     0.27054000
     0.42857143     0.72892250     0.27054000
     0.42857143     0.97892250     0.27054000
     0.57142857     0.22892250     0.27054000
     0.57142857     0.47892250     0.27054000
     0.57142857     0.72892250     0.27054000
     0.57142857     0.97892250     0.27054000
     0.71428571     0.22892250     0.27054000
     0.71428571     0.47892250     0.27054000
     0.71428571     0.72892250     0.27054000
     0.71428571     0.97892250     0.27054000
     0.85714286     0.22892250     0.27054000
     0.85714286     0.47892250     0.27054000
     0.85714286     0.72892250     0.27054000
     0.85714286     0.97892250     0.27054000
     1.00000000     0.22892250     0.27054000
     1.00000000     0.47892250     0.27054000
     1.00000000     0.72892250     0.27054000
     1.00000000     0.97892250     0.27054000
    -0.02014862     0.14104034     0.44807666
     0.11778241     0.17552310     0.44807666
     0.08329966     0.41690241     0.44807666
     0.04881690     0.65828172     0.44807666
     0.01433414     0.89966103     0.44807666
     0.25571345     0.21000586     0.44807666
     0.22123069     0.45138517     0.44807666
     0.18674793     0.69276448     0.44807666
     0.15226517     0.93414379     0.44807666
     0.39364448     0.24448862     0.44807666
     0.35916172     0.48586793     0.44807666
     0.32467897     0.72724724     0.44807666
     0.29019621     0.96862655     0.44807666
     0.53157552     0.27897138     0.44807666
     0.49709276     0.52035069     0.44807666
     0.46261000     0.76173000     0.44807666
     0.42812724     1.00310931     0.44807666
     0.66950655     0.31345414     0.44807666
     0.63502379     0.55483345     0.44807666
     0.60054103     0.79621276     0.44807666
     0.56605828     1.03759207     0.44807666
     0.80743759     0.34793690     0.44807666
     0.77295483     0.58931621     0.44807666
     0.73847207     0.83069552     0.44807666
     0.70398931     1.07207483     0.44807666
     0.94536862     0.38241965     0.44807666
     0.91088586     0.62379896     0.44807666
     0.87640310     0.86517827     0.44807666
     0.84192034     1.10655759     0.44807666
    -0.01433414     0.10033897     0.37720667
     0.12359690     0.13482173     0.37720667
     0.08911414     0.37620104     0.37720667
     0.05463138     0.61758035     0.37720667
     0.02014862     0.85895966     0.37720667
     0.26152793     0.16930448     0.37720667
     0.22704517     0.41068379     0.37720667
     0.19256241     0.65206310     0.37720667
     0.15807966     0.89344241     0.37720667
     0.39945897     0.20378724     0.37720667
     0.36497621     0.44516655     0.37720667
     0.33049345     0.68654586     0.37720667
     0.29601069     0.92792517     0.37720667
     0.53739000     0.23827000     0.37720667
     0.50290724     0.47964931     0.37720667
     0.46842448     0.72102862     0.37720667
     0.43394172     0.96240793     0.37720667
     0.67532103     0.27275276     0.37720667
     0.64083828     0.51413207     0.37720667
     0.60635552     0.75551138     0.37720667
     0.57187276     0.99689069     0.37720667
     0.81325207     0.30723552     0.37720667
     0.77876931     0.54861483     0.37720667
     0.74428655     0.78999414     0.37720667
     0.70980379     1.03137345     0.37720667
     0.95118310     0.34171828     0.37720667
     0.91670034     0.58309759     0.37720667
     0.88221759     0.82447690     0.37720667
     0.84773483     1.06585621     0.37720667
     0.06605828     0.03759207     0.37720667
     0.20398931     0.07207483     0.37720667
     0.16950655     0.31345414     0.37720667
     0.13502379     0.55483345     0.37720667
     0.10054103     0.79621276     0.37720667
     0.34192034     0.10655759     0.37720667
     0.30743759     0.34793690     0.37720667
     0.27295483     0.58931621     0.37720667
     0.23847207     0.83069552     0.37720667
     0.47985138     0.14104035     0.37720667
     0.44536862     0.38241966     0.37720667
     0.41088586     0.62379897     0.37720667
     0.37640310     0.86517828     0.37720667
     0.61778241     0.17552310     0.37720667
     0.58329966     0.41690241     0.37720667
     0.54881690     0.65828172     0.37720667
     0.51433414     0.89966104     0.37720667
     0.75571345     0.21000586     0.37720667
     0.72123069     0.45138517     0.37720667
     0.68674793     0.69276448     0.37720667
     0.65226517     0.93414379     0.37720667
     0.89364448     0.24448862     0.37720667
     0.85916172     0.48586793     0.37720667
     0.82467897     0.72724724     0.37720667
     0.79019621     0.96862655     0.37720667
     1.03157552     0.27897138     0.37720667
     0.99709276     0.52035069     0.37720667
     0.96261000     0.76173000     0.37720667
     0.92812724     1.00310931     0.37720667
     0.03739000     0.23827000     0.44807666
     0.17532103     0.27275276     0.44807666
     0.14083828     0.51413207     0.44807666
     0.10635552     0.75551138     0.44807666
     0.07187276     0.99689069     0.44807666
     0.31325207     0.30723552     0.44807666
     0.27876931     0.54861483     0.44807666
     0.24428655     0.78999414     0.44807666
     0.20980379     1.03137345     0.44807666
     0.45118310     0.34171828     0.44807666
     0.41670034     0.58309759     0.44807666
     0.38221759     0.82447690     0.44807666
     0.34773483     1.06585621     0.44807666
     0.58911414     0.37620104     0.44807666
     0.55463138     0.61758035     0.44807666
     0.52014862     0.85895966     0.44807666
     0.48566586     1.10033897     0.44807666
     0.72704517     0.41068379     0.44807666
     0.69256241     0.65206310     0.44807666
     0.65807965     0.89344241     0.44807666
     0.62359690     1.13482173     0.44807666
     0.86497621     0.44516655     0.44807666
     0.83049345     0.68654586     0.44807666
     0.79601069     0.92792517     0.44807666
     0.76152793     1.16930448     0.44807666
     1.00290724     0.47964931     0.44807666
     0.96842448     0.72102862     0.44807666
     0.93394172     0.96240793     0.44807666
     0.89945897     1.20378724     0.44807666
