P900
1.0
46.379199 0.000000 0.000000
0.000000 36.027199 0.000000
0.000000 0.000000 30.000000
P
900
direct
0.000000 0.073039 0.270540 P
0.000000 0.198039 0.270540 P
0.000000 0.323039 0.270540 P
0.000000 0.448039 0.270540 P
0.000000 0.573039 0.270540 P
0.000000 0.698039 0.270540 P
0.000000 0.823039 0.270540 P
0.000000 0.948039 0.270540 P
0.071429 0.073039 0.270540 P
0.071429 0.198039 0.270540 P
0.071429 0.323039 0.270540 P
0.071429 0.448039 0.270540 P
0.071429 0.573039 0.270540 P
0.071429 0.698039 0.270540 P
0.071429 0.823039 0.270540 P
0.071429 0.948039 0.270540 P
0.142857 0.073039 0.270540 P
0.142857 0.198039 0.270540 P
0.142857 0.323039 0.270540 P
0.142857 0.448039 0.270540 P
0.142857 0.573039 0.270540 P
0.142857 0.698039 0.270540 P
0.142857 0.823039 0.270540 P
0.142857 0.948039 0.270540 P
0.214286 0.073039 0.270540 P
0.214286 0.198039 0.270540 P
0.214286 0.323039 0.270540 P
0.214286 0.448039 0.270540 P
0.214286 0.573039 0.270540 P
0.214286 0.698039 0.270540 P
0.214286 0.823039 0.270540 P
0.214286 0.948039 0.270540 P
0.285714 0.073039 0.270540 P
0.285714 0.198039 0.270540 P
0.285714 0.323039 0.270540 P
0.285714 0.448039 0.270540 P
0.285714 0.573039 0.270540 P
0.285714 0.698039 0.270540 P
0.285714 0.823039 0.270540 P
0.285714 0.948039 0.270540 P
0.357143 0.073039 0.270540 P
0.357143 0.198039 0.270540 P
0.357143 0.323039 0.270540 P
0.357143 0.448039 0.270540 P
0.357143 0.573039 0.270540 P
0.357143 0.698039 0.270540 P
0.357143 0.823039 0.270540 P
0.357143 0.948039 0.270540 P
0.428571 0.073039 0.270540 P
0.428571 0.198039 0.270540 P
0.428571 0.323039 0.270540 P
0.428571 0.448039 0.270540 P
0.428571 0.573039 0.270540 P
0.428571 0.698039 0.270540 P
0.428571 0.823039 0.270540 P
0.428571 0.948039 0.270540 P
0.500000 0.073039 0.270540 P
0.500000 0.198039 0.270540 P
0.500000 0.323039 0.270540 P
0.500000 0.448039 0.270540 P
0.500000 0.573039 0.270540 P
0.500000 0.698039 0.270540 P
0.500000 0.823039 0.270540 P
0.500000 0.948039 0.270540 P
0.571429 0.073039 0.270540 P
0.571429 0.198039 0.270540 P
0.571429 0.323039 0.270540 P
0.571429 0.448039 0.270540 P
0.571429 0.573039 0.270540 P
0.571429 0.698039 0.270540 P
0.571429 0.823039 0.270540 P
0.571429 0.948039 0.270540 P
0.642857 0.073039 0.270540 P
0.642857 0.198039 0.270540 P
0.642857 0.323039 0.270540 P
0.642857 0.448039 0.270540 P
0.642857 0.573039 0.270540 P
0.642857 0.698039 0.270540 P
0.642857 0.823039 0.270540 P
0.642857 0.948039 0.270540 P
0.714286 0.073039 0.270540 P
0.714286 0.198039 0.270540 P
0.714286 0.323039 0.270540 P
0.714286 0.448039 0.270540 P
0.714286 0.573039 0.270540 P
0.714286 0.698039 0.270540 P
0.714286 0.823039 0.270540 P
0.714286 0.948039 0.270540 P
0.785714 0.073039 0.270540 P
0.785714 0.198039 0.270540 P
0.785714 0.323039 0.270540 P
0.785714 0.448039 0.270540 P
0.785714 0.573039 0.270540 P
0.785714 0.698039 0.270540 P
0.785714 0.823039 0.270540 P
0.785714 0.948039 0.270540 P
0.857143 0.073039 0.270540 P
0.857143 0.198039 0.270540 P
0.857143 0.323039 0.270540 P
0.857143 0.448039 0.270540 P
0.857143 0.573039 0.270540 P
0.857143 0.698039 0.270540 P
0.857143 0.823039 0.270540 P
0.857143 0.948039 0.270540 P
0.928571 0.073039 0.270540 P
0.928571 0.198039 0.270540 P
0.928571 0.323039 0.270540 P
0.928571 0.448039 0.270540 P
0.928571 0.573039 0.270540 P
0.928571 0.698039 0.270540 P
0.928571 0.823039 0.270540 P
0.928571 0.948039 0.270540 P
0.000000 0.051961 0.199670 P
0.000000 0.176961 0.199670 P
0.000000 0.301961 0.199670 P
0.000000 0.426961 0.199670 P
0.000000 0.551961 0.199670 P
0.000000 0.676961 0.199670 P
0.000000 0.801961 0.199670 P
0.000000 0.926961 0.199670 P
0.071429 0.051961 0.199670 P
0.071429 0.176961 0.199670 P
0.071429 0.301961 0.199670 P
0.071429 0.426961 0.199670 P
0.071429 0.551961 0.199670 P
0.071429 0.676961 0.199670 P
0.071429 0.801961 0.199670 P
0.071429 0.926961 0.199670 P
0.142857 0.051961 0.199670 P
0.142857 0.176961 0.199670 P
0.142857 0.301961 0.199670 P
0.142857 0.426961 0.199670 P
0.142857 0.551961 0.199670 P
0.142857 0.676961 0.199670 P
0.142857 0.801961 0.199670 P
0.142857 0.926961 0.199670 P
0.214286 0.051961 0.199670 P
0.214286 0.176961 0.199670 P
0.214286 0.301961 0.199670 P
0.214286 0.426961 0.199670 P
0.214286 0.551961 0.199670 P
0.214286 0.676961 0.199670 P
0.214286 0.801961 0.199670 P
0.214286 0.926961 0.199670 P
0.285714 0.051961 0.199670 P
0.285714 0.176961 0.199670 P
0.285714 0.301961 0.199670 P
0.285714 0.426961 0.199670 P
0.285714 0.551961 0.199670 P
0.285714 0.676961 0.199670 P
0.285714 0.801961 0.199670 P
0.285714 0.926961 0.199670 P
0.357143 0.051961 0.199670 P
0.357143 0.176961 0.199670 P
0.357143 0.301961 0.199670 P
0.357143 0.426961 0.199670 P
0.357143 0.551961 0.199670 P
0.357143 0.676961 0.199670 P
0.357143 0.801961 0.199670 P
0.357143 0.926961 0.199670 P
0.428571 0.051961 0.199670 P
0.428571 0.176961 0.199670 P
0.428571 0.301961 0.199670 P
0.428571 0.426961 0.199670 P
0.428571 0.551961 0.199670 P
0.428571 0.676961 0.199670 P
0.428571 0.801961 0.199670 P
0.428571 0.926961 0.199670 P
0.500000 0.051961 0.199670 P
0.500000 0.176961 0.199670 P
0.500000 0.301961 0.199670 P
0.500000 0.426961 0.199670 P
0.500000 0.551961 0.199670 P
0.500000 0.676961 0.199670 P
0.500000 0.801961 0.199670 P
0.500000 0.926961 0.199670 P
0.571429 0.051961 0.199670 P
0.571429 0.176961 0.199670 P
0.571429 0.301961 0.199670 P
0.571429 0.426961 0.199670 P
0.571429 0.551961 0.199670 P
0.571429 0.676961 0.199670 P
0.571429 0.801961 0.199670 P
0.571429 0.926961 0.199670 P
0.642857 0.051961 0.199670 P
0.642857 0.176961 0.199670 P
0.642857 0.301961 0.199670 P
0.642857 0.426961 0.199670 P
0.642857 0.551961 0.199670 P
0.642857 0.676961 0.199670 P
0.642857 0.801961 0.199670 P
0.642857 0.926961 0.199670 P
0.714286 0.051961 0.199670 P
0.714286 0.176961 0.199670 P
0.714286 0.301961 0.199670 P
0.714286 0.426961 0.199670 P
0.714286 0.551961 0.199670 P
0.714286 0.676961 0.199670 P
0.714286 0.801961 0.199670 P
0.714286 0.926961 0.199670 P
0.785714 0.051961 0.199670 P
0.785714 0.176961 0.199670 P
0.785714 0.301961 0.199670 P
0.785714 0.426961 0.199670 P
0.785714 0.551961 0.199670 P
0.785714 0.676961 0.199670 P
0.785714 0.801961 0.199670 P
0.785714 0.926961 0.199670 P
0.857143 0.051961 0.199670 P
0.857143 0.176961 0.199670 P
0.857143 0.301961 0.199670 P
0.857143 0.426961 0.199670 P
0.857143 0.551961 0.199670 P
0.857143 0.676961 0.199670 P
0.857143 0.801961 0.199670 P
0.857143 0.926961 0.199670 P
0.928571 0.051961 0.199670 P
0.928571 0.176961 0.199670 P
0.928571 0.301961 0.199670 P
0.928571 0.426961 0.199670 P
0.928571 0.551961 0.199670 P
0.928571 0.676961 0.199670 P
0.928571 0.801961 0.199670 P
0.928571 0.926961 0.199670 P
0.035714 0.010539 0.199670 P
0.035714 0.135539 0.199670 P
0.035714 0.260539 0.199670 P
0.035714 0.385539 0.199670 P
0.035714 0.510539 0.199670 P
0.035714 0.635539 0.199670 P
0.035714 0.760539 0.199670 P
0.035714 0.885539 0.199670 P
0.107143 0.010539 0.199670 P
0.107143 0.135539 0.199670 P
0.107143 0.260539 0.199670 P
0.107143 0.385539 0.199670 P
0.107143 0.510539 0.199670 P
0.107143 0.635539 0.199670 P
0.107143 0.760539 0.199670 P
0.107143 0.885539 0.199670 P
0.178571 0.010539 0.199670 P
0.178571 0.135539 0.199670 P
0.178571 0.260539 0.199670 P
0.178571 0.385539 0.199670 P
0.178571 0.510539 0.199670 P
0.178571 0.635539 0.199670 P
0.178571 0.760539 0.199670 P
0.178571 0.885539 0.199670 P
0.250000 0.010539 0.199670 P
0.250000 0.135539 0.199670 P
0.250000 0.260539 0.199670 P
0.250000 0.385539 0.199670 P
0.250000 0.510539 0.199670 P
0.250000 0.635539 0.199670 P
0.250000 0.760539 0.199670 P
0.250000 0.885539 0.199670 P
0.321429 0.010539 0.199670 P
0.321429 0.135539 0.199670 P
0.321429 0.260539 0.199670 P
0.321429 0.385539 0.199670 P
0.321429 0.510539 0.199670 P
0.321429 0.635539 0.199670 P
0.321429 0.760539 0.199670 P
0.321429 0.885539 0.199670 P
0.392857 0.010539 0.199670 P
0.392857 0.135539 0.199670 P
0.392857 0.260539 0.199670 P
0.392857 0.385539 0.199670 P
0.392857 0.510539 0.199670 P
0.392857 0.635539 0.199670 P
0.392857 0.760539 0.199670 P
0.392857 0.885539 0.199670 P
0.464286 0.010539 0.199670 P
0.464286 0.135539 0.199670 P
0.464286 0.260539 0.199670 P
0.464286 0.385539 0.199670 P
0.464286 0.510539 0.199670 P
0.464286 0.635539 0.199670 P
0.464286 0.760539 0.199670 P
0.464286 0.885539 0.199670 P
0.535714 0.010539 0.199670 P
0.535714 0.135539 0.199670 P
0.535714 0.260539 0.199670 P
0.535714 0.385539 0.199670 P
0.535714 0.510539 0.199670 P
0.535714 0.635539 0.199670 P
0.535714 0.760539 0.199670 P
0.535714 0.885539 0.199670 P
0.607143 0.010539 0.199670 P
0.607143 0.135539 0.199670 P
0.607143 0.260539 0.199670 P
0.607143 0.385539 0.199670 P
0.607143 0.510539 0.199670 P
0.607143 0.635539 0.199670 P
0.607143 0.760539 0.199670 P
0.607143 0.885539 0.199670 P
0.678571 0.010539 0.199670 P
0.678571 0.135539 0.199670 P
0.678571 0.260539 0.199670 P
0.678571 0.385539 0.199670 P
0.678571 0.510539 0.199670 P
0.678571 0.635539 0.199670 P
0.678571 0.760539 0.199670 P
0.678571 0.885539 0.199670 P
0.750000 0.010539 0.199670 P
0.750000 0.135539 0.199670 P
0.750000 0.260539 0.199670 P
0.750000 0.385539 0.199670 P
0.750000 0.510539 0.199670 P
0.750000 0.635539 0.199670 P
0.750000 0.760539 0.199670 P
0.750000 0.885539 0.199670 P
0.821429 0.010539 0.199670 P
0.821429 0.135539 0.199670 P
0.821429 0.260539 0.199670 P
0.821429 0.385539 0.199670 P
0.821429 0.510539 0.199670 P
0.821429 0.635539 0.199670 P
0.821429 0.760539 0.199670 P
0.821429 0.885539 0.199670 P
0.892857 0.010539 0.199670 P
0.892857 0.135539 0.199670 P
0.892857 0.260539 0.199670 P
0.892857 0.385539 0.199670 P
0.892857 0.510539 0.199670 P
0.892857 0.635539 0.199670 P
0.892857 0.760539 0.199670 P
0.892857 0.885539 0.199670 P
0.964286 0.010539 0.199670 P
0.964286 0.135539 0.199670 P
0.964286 0.260539 0.199670 P
0.964286 0.385539 0.199670 P
0.964286 0.510539 0.199670 P
0.964286 0.635539 0.199670 P
0.964286 0.760539 0.199670 P
0.964286 0.885539 0.199670 P
0.035714 0.114461 0.270540 P
0.035714 0.239461 0.270540 P
0.035714 0.364461 0.270540 P
0.035714 0.489461 0.270540 P
0.035714 0.614461 0.270540 P
0.035714 0.739461 0.270540 P
0.035714 0.864461 0.270540 P
0.035714 0.989461 0.270540 P
0.107143 0.114461 0.270540 P
0.107143 0.239461 0.270540 P
0.107143 0.364461 0.270540 P
0.107143 0.489461 0.270540 P
0.107143 0.614461 0.270540 P
0.107143 0.739461 0.270540 P
0.107143 0.864461 0.270540 P
0.107143 0.989461 0.270540 P
0.178571 0.114461 0.270540 P
0.178571 0.239461 0.270540 P
0.178571 0.364461 0.270540 P
0.178571 0.489461 0.270540 P
0.178571 0.614461 0.270540 P
0.178571 0.739461 0.270540 P
0.178571 0.864461 0.270540 P
0.178571 0.989461 0.270540 P
0.250000 0.114461 0.270540 P
0.250000 0.239461 0.270540 P
0.250000 0.364461 0.270540 P
0.250000 0.489461 0.270540 P
0.250000 0.614461 0.270540 P
0.250000 0.739461 0.270540 P
0.250000 0.864461 0.270540 P
0.250000 0.989461 0.270540 P
0.321429 0.114461 0.270540 P
0.321429 0.239461 0.270540 P
0.321429 0.364461 0.270540 P
0.321429 0.489461 0.270540 P
0.321429 0.614461 0.270540 P
0.321429 0.739461 0.270540 P
0.321429 0.864461 0.270540 P
0.321429 0.989461 0.270540 P
0.392857 0.114461 0.270540 P
0.392857 0.239461 0.270540 P
0.392857 0.364461 0.270540 P
0.392857 0.489461 0.270540 P
0.392857 0.614461 0.270540 P
0.392857 0.739461 0.270540 P
0.392857 0.864461 0.270540 P
0.392857 0.989461 0.270540 P
0.464286 0.114461 0.270540 P
0.464286 0.239461 0.270540 P
0.464286 0.364461 0.270540 P
0.464286 0.489461 0.270540 P
0.464286 0.614461 0.270540 P
0.464286 0.739461 0.270540 P
0.464286 0.864461 0.270540 P
0.464286 0.989461 0.270540 P
0.535714 0.114461 0.270540 P
0.535714 0.239461 0.270540 P
0.535714 0.364461 0.270540 P
0.535714 0.489461 0.270540 P
0.535714 0.614461 0.270540 P
0.535714 0.739461 0.270540 P
0.535714 0.864461 0.270540 P
0.535714 0.989461 0.270540 P
0.607143 0.114461 0.270540 P
0.607143 0.239461 0.270540 P
0.607143 0.364461 0.270540 P
0.607143 0.489461 0.270540 P
0.607143 0.614461 0.270540 P
0.607143 0.739461 0.270540 P
0.607143 0.864461 0.270540 P
0.607143 0.989461 0.270540 P
0.678571 0.114461 0.270540 P
0.678571 0.239461 0.270540 P
0.678571 0.364461 0.270540 P
0.678571 0.489461 0.270540 P
0.678571 0.614461 0.270540 P
0.678571 0.739461 0.270540 P
0.678571 0.864461 0.270540 P
0.678571 0.989461 0.270540 P
0.750000 0.114461 0.270540 P
0.750000 0.239461 0.270540 P
0.750000 0.364461 0.270540 P
0.750000 0.489461 0.270540 P
0.750000 0.614461 0.270540 P
0.750000 0.739461 0.270540 P
0.750000 0.864461 0.270540 P
0.750000 0.989461 0.270540 P
0.821429 0.114461 0.270540 P
0.821429 0.239461 0.270540 P
0.821429 0.364461 0.270540 P
0.821429 0.489461 0.270540 P
0.821429 0.614461 0.270540 P
0.821429 0.739461 0.270540 P
0.821429 0.864461 0.270540 P
0.821429 0.989461 0.270540 P
0.892857 0.114461 0.270540 P
0.892857 0.239461 0.270540 P
0.892857 0.364461 0.270540 P
0.892857 0.489461 0.270540 P
0.892857 0.614461 0.270540 P
0.892857 0.739461 0.270540 P
0.892857 0.864461 0.270540 P
0.892857 0.989461 0.270540 P
0.964286 0.114461 0.270540 P
0.964286 0.239461 0.270540 P
0.964286 0.364461 0.270540 P
0.964286 0.489461 0.270540 P
0.964286 0.614461 0.270540 P
0.964286 0.739461 0.270540 P
0.964286 0.864461 0.270540 P
0.964286 0.989461 0.270540 P
0.994829 0.072392 0.448077 P
0.065626 0.081242 0.448077 P
0.056776 0.205136 0.448077 P
0.047926 0.329030 0.448077 P
0.039077 0.452923 0.448077 P
0.030227 0.576817 0.448077 P
0.021378 0.700711 0.448077 P
0.012528 0.824605 0.448077 P
0.003679 0.948499 0.448077 P
0.136422 0.090092 0.448077 P
0.127572 0.213985 0.448077 P
0.118723 0.337879 0.448077 P
0.109873 0.461773 0.448077 P
0.101024 0.585667 0.448077 P
0.092174 0.709561 0.448077 P
0.083325 0.833454 0.448077 P
0.074475 0.957348 0.448077 P
0.207218 0.098941 0.448077 P
0.198369 0.222835 0.448077 P
0.189519 0.346729 0.448077 P
0.180670 0.470622 0.448077 P
0.171820 0.594516 0.448077 P
0.162971 0.718410 0.448077 P
0.154121 0.842304 0.448077 P
0.145272 0.966198 0.448077 P
0.278015 0.107791 0.448077 P
0.269165 0.231684 0.448077 P
0.260316 0.355578 0.448077 P
0.251466 0.479472 0.448077 P
0.242617 0.603366 0.448077 P
0.233767 0.727260 0.448077 P
0.224918 0.851153 0.448077 P
0.216068 0.975047 0.448077 P
0.348811 0.116640 0.448077 P
0.339962 0.240534 0.448077 P
0.331112 0.364428 0.448077 P
0.322263 0.488322 0.448077 P
0.313413 0.612215 0.448077 P
0.304564 0.736109 0.448077 P
0.295714 0.860003 0.448077 P
0.286865 0.983897 0.448077 P
0.419608 0.125490 0.448077 P
0.410758 0.249384 0.448077 P
0.401909 0.373277 0.448077 P
0.393059 0.497171 0.448077 P
0.384210 0.621065 0.448077 P
0.375360 0.744959 0.448077 P
0.366511 0.868853 0.448077 P
0.357661 0.992746 0.448077 P
0.490404 0.134339 0.448077 P
0.481555 0.258233 0.448077 P
0.472705 0.382127 0.448077 P
0.463856 0.506021 0.448077 P
0.455006 0.629915 0.448077 P
0.446157 0.753808 0.448077 P
0.437307 0.877702 0.448077 P
0.428457 0.001596 0.448077 P
0.561201 0.143189 0.448077 P
0.552351 0.267083 0.448077 P
0.543502 0.390976 0.448077 P
0.534652 0.514870 0.448077 P
0.525803 0.638764 0.448077 P
0.516953 0.762658 0.448077 P
0.508103 0.886552 0.448077 P
0.499254 0.010445 0.448077 P
0.631997 0.152038 0.448077 P
0.623148 0.275932 0.448077 P
0.614298 0.399826 0.448077 P
0.605449 0.523720 0.448077 P
0.596599 0.647614 0.448077 P
0.587749 0.771507 0.448077 P
0.578900 0.895401 0.448077 P
0.570050 0.019295 0.448077 P
0.702794 0.160888 0.448077 P
0.693944 0.284782 0.448077 P
0.685095 0.408676 0.448077 P
0.676245 0.532569 0.448077 P
0.667395 0.656463 0.448077 P
0.658546 0.780357 0.448077 P
0.649696 0.904251 0.448077 P
0.640847 0.028145 0.448077 P
0.773590 0.169738 0.448077 P
0.764741 0.293631 0.448077 P
0.755891 0.417525 0.448077 P
0.747042 0.541419 0.448077 P
0.738192 0.665313 0.448077 P
0.729342 0.789207 0.448077 P
0.720493 0.913100 0.448077 P
0.711643 0.036994 0.448077 P
0.844387 0.178587 0.448077 P
0.835537 0.302481 0.448077 P
0.826688 0.426375 0.448077 P
0.817838 0.550268 0.448077 P
0.808988 0.674162 0.448077 P
0.800139 0.798056 0.448077 P
0.791289 0.921950 0.448077 P
0.782440 0.045844 0.448077 P
0.915183 0.187437 0.448077 P
0.906334 0.311330 0.448077 P
0.897484 0.435224 0.448077 P
0.888634 0.559118 0.448077 P
0.879785 0.683012 0.448077 P
0.870935 0.806906 0.448077 P
0.862086 0.930799 0.448077 P
0.853236 0.054693 0.448077 P
0.985980 0.196286 0.448077 P
0.977130 0.320180 0.448077 P
0.968280 0.444074 0.448077 P
0.959431 0.567968 0.448077 P
0.950581 0.691861 0.448077 P
0.941732 0.815755 0.448077 P
0.932882 0.939649 0.448077 P
0.924033 0.063543 0.448077 P
0.996321 0.051501 0.377207 P
0.067118 0.060351 0.377207 P
0.058268 0.184245 0.377207 P
0.049419 0.308139 0.377207 P
0.040569 0.432032 0.377207 P
0.031720 0.555926 0.377207 P
0.022870 0.679820 0.377207 P
0.014020 0.803714 0.377207 P
0.005171 0.927608 0.377207 P
0.137914 0.069201 0.377207 P
0.129065 0.193094 0.377207 P
0.120215 0.316988 0.377207 P
0.111366 0.440882 0.377207 P
0.102516 0.564776 0.377207 P
0.093666 0.688670 0.377207 P
0.084817 0.812563 0.377207 P
0.075967 0.936457 0.377207 P
0.208711 0.078050 0.377207 P
0.199861 0.201944 0.377207 P
0.191012 0.325838 0.377207 P
0.182162 0.449732 0.377207 P
0.173312 0.573625 0.377207 P
0.164463 0.697519 0.377207 P
0.155613 0.821413 0.377207 P
0.146764 0.945307 0.377207 P
0.279507 0.086900 0.377207 P
0.270658 0.210793 0.377207 P
0.261808 0.334687 0.377207 P
0.252958 0.458581 0.377207 P
0.244109 0.582475 0.377207 P
0.235259 0.706369 0.377207 P
0.226410 0.830262 0.377207 P
0.217560 0.954156 0.377207 P
0.350304 0.095749 0.377207 P
0.341454 0.219643 0.377207 P
0.332605 0.343537 0.377207 P
0.323755 0.467431 0.377207 P
0.314905 0.591324 0.377207 P
0.306056 0.715218 0.377207 P
0.297206 0.839112 0.377207 P
0.288357 0.963006 0.377207 P
0.421100 0.104599 0.377207 P
0.412251 0.228493 0.377207 P
0.403401 0.352386 0.377207 P
0.394551 0.476280 0.377207 P
0.385702 0.600174 0.377207 P
0.376852 0.724068 0.377207 P
0.368003 0.847962 0.377207 P
0.359153 0.971855 0.377207 P
0.491897 0.113448 0.377207 P
0.483047 0.237342 0.377207 P
0.474197 0.361236 0.377207 P
0.465348 0.485130 0.377207 P
0.456498 0.609024 0.377207 P
0.447649 0.732917 0.377207 P
0.438799 0.856811 0.377207 P
0.429950 0.980705 0.377207 P
0.562693 0.122298 0.377207 P
0.553843 0.246192 0.377207 P
0.544994 0.370085 0.377207 P
0.536144 0.493979 0.377207 P
0.527295 0.617873 0.377207 P
0.518445 0.741767 0.377207 P
0.509596 0.865661 0.377207 P
0.500746 0.989555 0.377207 P
0.633489 0.131147 0.377207 P
0.624640 0.255041 0.377207 P
0.615790 0.378935 0.377207 P
0.606941 0.502829 0.377207 P
0.598091 0.626723 0.377207 P
0.589242 0.750616 0.377207 P
0.580392 0.874510 0.377207 P
0.571543 0.998404 0.377207 P
0.704286 0.139997 0.377207 P
0.695436 0.263891 0.377207 P
0.686587 0.387785 0.377207 P
0.677737 0.511678 0.377207 P
0.668888 0.635572 0.377207 P
0.660038 0.759466 0.377207 P
0.651189 0.883360 0.377207 P
0.642339 0.007254 0.377207 P
0.775082 0.148847 0.377207 P
0.766233 0.272740 0.377207 P
0.757383 0.396634 0.377207 P
0.748534 0.520528 0.377207 P
0.739684 0.644422 0.377207 P
0.730835 0.768316 0.377207 P
0.721985 0.892209 0.377207 P
0.713135 0.016103 0.377207 P
0.845879 0.157696 0.377207 P
0.837029 0.281590 0.377207 P
0.828180 0.405484 0.377207 P
0.819330 0.529378 0.377207 P
0.810481 0.653271 0.377207 P
0.801631 0.777165 0.377207 P
0.792782 0.901059 0.377207 P
0.783932 0.024953 0.377207 P
0.916675 0.166546 0.377207 P
0.907826 0.290439 0.377207 P
0.898976 0.414333 0.377207 P
0.890127 0.538227 0.377207 P
0.881277 0.662121 0.377207 P
0.872428 0.786015 0.377207 P
0.863578 0.909909 0.377207 P
0.854728 0.033802 0.377207 P
0.987472 0.175395 0.377207 P
0.978622 0.299289 0.377207 P
0.969773 0.423183 0.377207 P
0.960923 0.547077 0.377207 P
0.952074 0.670970 0.377207 P
0.943224 0.794864 0.377207 P
0.934374 0.918758 0.377207 P
0.925525 0.042652 0.377207 P
0.034652 0.014870 0.377207 P
0.105449 0.023720 0.377207 P
0.096599 0.147614 0.377207 P
0.087749 0.271507 0.377207 P
0.078900 0.395401 0.377207 P
0.070050 0.519295 0.377207 P
0.061201 0.643189 0.377207 P
0.052351 0.767083 0.377207 P
0.043502 0.890976 0.377207 P
0.176245 0.032569 0.377207 P
0.167395 0.156463 0.377207 P
0.158546 0.280357 0.377207 P
0.149696 0.404251 0.377207 P
0.140847 0.528145 0.377207 P
0.131997 0.652038 0.377207 P
0.123148 0.775932 0.377207 P
0.114298 0.899826 0.377207 P
0.247041 0.041419 0.377207 P
0.238192 0.165313 0.377207 P
0.229342 0.289207 0.377207 P
0.220493 0.413100 0.377207 P
0.211643 0.536994 0.377207 P
0.202794 0.660888 0.377207 P
0.193944 0.784782 0.377207 P
0.185095 0.908676 0.377207 P
0.317838 0.050269 0.377207 P
0.308988 0.174162 0.377207 P
0.300139 0.298056 0.377207 P
0.291289 0.421950 0.377207 P
0.282440 0.545844 0.377207 P
0.273590 0.669738 0.377207 P
0.264741 0.793631 0.377207 P
0.255891 0.917525 0.377207 P
0.388634 0.059118 0.377207 P
0.379785 0.183012 0.377207 P
0.370935 0.306906 0.377207 P
0.362086 0.430799 0.377207 P
0.353236 0.554693 0.377207 P
0.344387 0.678587 0.377207 P
0.335537 0.802481 0.377207 P
0.326688 0.926375 0.377207 P
0.459431 0.067968 0.377207 P
0.450581 0.191861 0.377207 P
0.441732 0.315755 0.377207 P
0.432882 0.439649 0.377207 P
0.424033 0.563543 0.377207 P
0.415183 0.687437 0.377207 P
0.406334 0.811330 0.377207 P
0.397484 0.935224 0.377207 P
0.530227 0.076817 0.377207 P
0.521378 0.200711 0.377207 P
0.512528 0.324605 0.377207 P
0.503679 0.448499 0.377207 P
0.494829 0.572392 0.377207 P
0.485980 0.696286 0.377207 P
0.477130 0.820180 0.377207 P
0.468280 0.944074 0.377207 P
0.601024 0.085667 0.377207 P
0.592174 0.209561 0.377207 P
0.583325 0.333454 0.377207 P
0.574475 0.457348 0.377207 P
0.565626 0.581242 0.377207 P
0.556776 0.705136 0.377207 P
0.547926 0.829030 0.377207 P
0.539077 0.952923 0.377207 P
0.671820 0.094516 0.377207 P
0.662971 0.218410 0.377207 P
0.654121 0.342304 0.377207 P
0.645272 0.466198 0.377207 P
0.636422 0.590091 0.377207 P
0.627572 0.713985 0.377207 P
0.618723 0.837879 0.377207 P
0.609873 0.961773 0.377207 P
0.742617 0.103366 0.377207 P
0.733767 0.227260 0.377207 P
0.724918 0.351153 0.377207 P
0.716068 0.475047 0.377207 P
0.707218 0.598941 0.377207 P
0.698369 0.722835 0.377207 P
0.689519 0.846729 0.377207 P
0.680670 0.970622 0.377207 P
0.813413 0.112215 0.377207 P
0.804564 0.236109 0.377207 P
0.795714 0.360003 0.377207 P
0.786865 0.483897 0.377207 P
0.778015 0.607791 0.377207 P
0.769165 0.731684 0.377207 P
0.760316 0.855578 0.377207 P
0.751466 0.979472 0.377207 P
0.884210 0.121065 0.377207 P
0.875360 0.244959 0.377207 P
0.866511 0.368853 0.377207 P
0.857661 0.492746 0.377207 P
0.848811 0.616640 0.377207 P
0.839962 0.740534 0.377207 P
0.831112 0.864428 0.377207 P
0.822263 0.988322 0.377207 P
0.955006 0.129915 0.377207 P
0.946157 0.253808 0.377207 P
0.937307 0.377702 0.377207 P
0.928457 0.501596 0.377207 P
0.919608 0.625490 0.377207 P
0.910758 0.749384 0.377207 P
0.901909 0.873277 0.377207 P
0.893059 0.997171 0.377207 P
0.025803 0.138764 0.377207 P
0.016953 0.262658 0.377207 P
0.008103 0.386552 0.377207 P
0.999254 0.510445 0.377207 P
0.990404 0.634339 0.377207 P
0.981555 0.758233 0.377207 P
0.972705 0.882127 0.377207 P
0.963856 0.006021 0.377207 P
0.027295 0.117873 0.448077 P
0.098091 0.126723 0.448077 P
0.089242 0.250616 0.448077 P
0.080392 0.374510 0.448077 P
0.071543 0.498404 0.448077 P
0.062693 0.622298 0.448077 P
0.053843 0.746192 0.448077 P
0.044994 0.870085 0.448077 P
0.036144 0.993979 0.448077 P
0.168888 0.135572 0.448077 P
0.160038 0.259466 0.448077 P
0.151189 0.383360 0.448077 P
0.142339 0.507254 0.448077 P
0.133489 0.631147 0.448077 P
0.124640 0.755041 0.448077 P
0.115790 0.878935 0.448077 P
0.106941 0.002829 0.448077 P
0.239684 0.144422 0.448077 P
0.230835 0.268316 0.448077 P
0.221985 0.392209 0.448077 P
0.213135 0.516103 0.448077 P
0.204286 0.639997 0.448077 P
0.195436 0.763891 0.448077 P
0.186587 0.887785 0.448077 P
0.177737 0.011678 0.448077 P
0.310481 0.153271 0.448077 P
0.301631 0.277165 0.448077 P
0.292781 0.401059 0.448077 P
0.283932 0.524953 0.448077 P
0.275082 0.648847 0.448077 P
0.266233 0.772740 0.448077 P
0.257383 0.896634 0.448077 P
0.248534 0.020528 0.448077 P
0.381277 0.162121 0.448077 P
0.372428 0.286015 0.448077 P
0.363578 0.409909 0.448077 P
0.354728 0.533802 0.448077 P
0.345879 0.657696 0.448077 P
0.337029 0.781590 0.448077 P
0.328180 0.905484 0.448077 P
0.319330 0.029378 0.448077 P
0.452074 0.170970 0.448077 P
0.443224 0.294864 0.448077 P
0.434374 0.418758 0.448077 P
0.425525 0.542652 0.448077 P
0.416675 0.666546 0.448077 P
0.407826 0.790439 0.448077 P
0.398976 0.914333 0.448077 P
0.390127 0.038227 0.448077 P
0.522870 0.179820 0.448077 P
0.514020 0.303714 0.448077 P
0.505171 0.427608 0.448077 P
0.496321 0.551501 0.448077 P
0.487472 0.675395 0.448077 P
0.478622 0.799289 0.448077 P
0.469773 0.923183 0.448077 P
0.460923 0.047077 0.448077 P
0.593666 0.188670 0.448077 P
0.584817 0.312563 0.448077 P
0.575967 0.436457 0.448077 P
0.567118 0.560351 0.448077 P
0.558268 0.684245 0.448077 P
0.549419 0.808139 0.448077 P
0.540569 0.932032 0.448077 P
0.531720 0.055926 0.448077 P
0.664463 0.197519 0.448077 P
0.655613 0.321413 0.448077 P
0.646764 0.445307 0.448077 P
0.637914 0.569201 0.448077 P
0.629065 0.693094 0.448077 P
0.620215 0.816988 0.448077 P
0.611366 0.940882 0.448077 P
0.602516 0.064776 0.448077 P
0.735259 0.206369 0.448077 P
0.726410 0.330262 0.448077 P
0.717560 0.454156 0.448077 P
0.708711 0.578050 0.448077 P
0.699861 0.701944 0.448077 P
0.691012 0.825838 0.448077 P
0.682162 0.949732 0.448077 P
0.673312 0.073625 0.448077 P
0.806056 0.215218 0.448077 P
0.797206 0.339112 0.448077 P
0.788357 0.463006 0.448077 P
0.779507 0.586900 0.448077 P
0.770658 0.710793 0.448077 P
0.761808 0.834687 0.448077 P
0.752958 0.958581 0.448077 P
0.744109 0.082475 0.448077 P
0.876852 0.224068 0.448077 P
0.868003 0.347962 0.448077 P
0.859153 0.471855 0.448077 P
0.850304 0.595749 0.448077 P
0.841454 0.719643 0.448077 P
0.832605 0.843537 0.448077 P
0.823755 0.967431 0.448077 P
0.814905 0.091324 0.448077 P
0.947649 0.232917 0.448077 P
0.938799 0.356811 0.448077 P
0.929950 0.480705 0.448077 P
0.921100 0.604599 0.448077 P
0.912251 0.728493 0.448077 P
0.903401 0.852386 0.448077 P
0.894551 0.976280 0.448077 P
0.885702 0.100174 0.448077 P
0.018445 0.241767 0.448077 P
0.009596 0.365661 0.448077 P
0.000746 0.489555 0.448077 P
0.991897 0.613448 0.448077 P
0.983047 0.737342 0.448077 P
0.974197 0.861236 0.448077 P
0.965348 0.985130 0.448077 P
0.956498 0.109024 0.448077 P
