Generated by Twist2D
    1.0
      29.67299671       0.00000000       0.00000000
       0.00000000      22.15243164       0.00000000
       0.00000000       0.00000000      20.00000000
    P
    364
Direct
     0.05555556     0.11638530     0.42564805
     0.05555556     0.31638530     0.42564805
     0.05555556     0.51638530     0.42564805
     0.05555556     0.71638530     0.42564805
     0.05555556     0.91638530     0.42564805
     0.16666667     0.11638530     0.42564805
     0.16666667     0.31638530     0.42564805
     0.16666667     0.51638530     0.42564805
     0.16666667     0.71638530     0.42564805
     0.16666667     0.91638530     0.42564805
     0.27777778     0.11638530     0.42564805
     0.27777778     0.31638530     0.42564805
     0.27777778     0.51638530     0.42564805
     0.27777778     0.71638530     0.42564805
     0.27777778     0.91638530     0.42564805
     0.38888889     0.11638530     0.42564805
     0.38888889     0.31638530     0.42564805
     0.38888889     0.51638530     0.42564805
     0.38888889     0.71638530     0.42564805
     0.38888889     0.91638530     0.42564805
     0.50000000     0.11638530     0.42564805
     0.50000000     0.31638530     0.42564805
     0.50000000     0.51638530     0.42564805
     0.50000000     0.71638530     0.42564805
     0.50000000     0.91638530     0.42564805
     0.61111111     0.11638530     0.42564805
     0.61111111     0.31638530     0.42564805
     0.61111111     0.51638530     0.42564805
     0.61111111     0.71638530     0.42564805
     0.61111111     0.91638530     0.42564805
     0.72222222     0.11638530     0.42564805
     0.72222222     0.31638530     0.42564805
     0.72222222     0.51638530     0.42564805
     0.72222222     0.71638530     0.42564805
     0.72222222     0.91638530     0.42564805
     0.83333333     0.11638530     0.42564805
     0.83333333     0.31638530     0.42564805
     0.83333333     0.51638530     0.42564805
     0.83333333     0.71638530     0.42564805
     0.83333333     0.91638530     0.42564805
     0.94444444     0.11638530     0.42564805
     0.94444444     0.31638530     0.42564805
     0.94444444     0.51638530     0.42564805
     0.94444444     0.71638530     0.42564805
     0.94444444     0.91638530     0.42564805
     0.05555556     0.08350696     0.31942000
     0.05555556     0.28350696     0.31942000
     0.05555556     0.48350696     0.31942000
     0.05555556     0.68350696     0.31942000
     0.05555556     0.88350696     0.31942000
     0.16666667     0.08350696     0.31942000
     0.16666667     0.28350696     0.31942000
     0.16666667     0.48350696     0.31942000
     0.16666667     0.68350696     0.31942000
     0.16666667     0.88350696     0.31942000
     0.27777778     0.08350696     0.31942000
     0.27777778     0.28350696     0.31942000
     0.27777778     0.48350696     0.31942000
     0.27777778     0.68350696     0.31942000
     0.27777778     0.88350696     0.31942000
     0.38888889     0.08350696     0.31942000
     0.38888889     0.28350696     0.31942000
     0.38888889     0.48350696     0.31942000
     0.38888889     0.68350696     0.31942000
     0.38888889     0.88350696     0.31942000
     0.50000000     0.08350696     0.31942000
     0.50000000     0.28350696     0.31942000
     0.50000000     0.48350696     0.31942000
     0.50000000     0.68350696     0.31942000
     0.50000000     0.88350696     0.31942000
     0.61111111     0.08350696     0.31942000
     0.61111111     0.28350696     0.31942000
     0.61111111     0.48350696     0.31942000
     0.61111111     0.68350696     0.31942000
     0.61111111     0.88350696     0.31942000
     0.72222222     0.08350696     0.31942000
     0.72222222     0.28350696     0.31942000
     0.72222222     0.48350696     0.31942000
     0.72222222     0.68350696     0.31942000
     0.72222222     0.88350696     0.31942000
     0.83333333     0.08350696     0.31942000
     0.83333333     0.28350696     0.31942000
     0.83333333     0.48350696     0.31942000
     0.83333333     0.68350696     0.31942000
     0.83333333     0.88350696     0.31942000
     0.94444444     0.08350696     0.31942000
     0.94444444     0.28350696     0.31942000
     0.94444444     0.48350696     0.31942000
     0.94444444     0.68350696     0.31942000
     0.94444444     0.88350696     0.31942000
     0.11111111     0.01649304     0.31942000
     0.11111111     0.21649304     0.31942000
     0.11111111     0.41649304     0.31942000
     0.11111111     0.61649304     0.31942000
     0.11111111     0.81649304     0.31942000
     0.22222222     0.01649304     0.31942000
     0.22222222     0.21649304     0.31942000
     0.22222222     0.41649304     0.31942000
     0.22222222     0.61649304     0.31942000
     0.22222222     0.81649304     0.31942000
     0.33333333     0.01649304     0.31942000
     0.33333333     0.21649304     0.31942000
     0.33333333     0.41649304     0.31942000
     0.33333333     0.61649304     0.31942000
     0.33333333     0.81649304     0.31942000
     0.44444444     0.01649304     0.31942000
     0.44444444     0.21649304     0.31942000
     0.44444444     0.41649304     0.31942000
     0.44444444     0.61649304     0.31942000
     0.44444444     0.81649304     0.31942000
     0.55555556     0.01649304     0.31942000
     0.55555556     0.21649304     0.31942000
     0.55555556     0.41649304     0.31942000
     0.55555556     0.61649304     0.31942000
     0.55555556     0.81649304     0.31942000
     0.66666667     0.01649304     0.31942000
     0.66666667     0.21649304     0.31942000
     0.66666667     0.41649304     0.31942000
     0.66666667     0.61649304     0.31942000
     0.66666667     0.81649304     0.31942000
     0.77777778     0.01649304     0.31942000
     0.77777778     0.21649304     0.31942000
     0.77777778     0.41649304     0.31942000
     0.77777778     0.61649304     0.31942000
     0.77777778     0.81649304     0.31942000
     0.88888889     0.01649304     0.31942000
     0.88888889     0.21649304     0.31942000
     0.88888889     0.41649304     0.31942000
     0.88888889     0.61649304     0.31942000
     0.88888889     0.81649304     0.31942000
     1.00000000     0.01649304     0.31942000
     1.00000000     0.21649304     0.31942000
     1.00000000     0.41649304     0.31942000
     1.00000000     0.61649304     0.31942000
     1.00000000     0.81649304     0.31942000
     0.11111111     0.18361470     0.42564805
     0.11111111     0.38361470     0.42564805
     0.11111111     0.58361470     0.42564805
     0.11111111     0.78361470     0.42564805
     0.11111111     0.98361470     0.42564805
     0.22222222     0.18361470     0.42564805
     0.22222222     0.38361470     0.42564805
     0.22222222     0.58361470     0.42564805
     0.22222222     0.78361470     0.42564805
     0.22222222     0.98361470     0.42564805
     0.33333333     0.18361470     0.42564805
     0.33333333     0.38361470     0.42564805
     0.33333333     0.58361470     0.42564805
     0.33333333     0.78361470     0.42564805
     0.33333333     0.98361470     0.42564805
     0.44444444     0.18361470     0.42564805
     0.44444444     0.38361470     0.42564805
     0.44444444     0.58361470     0.42564805
     0.44444444     0.78361470     0.42564805
     0.44444444     0.98361470     0.42564805
     0.55555556     0.18361470     0.42564805
     0.55555556     0.38361470     0.42564805
     0.55555556     0.58361470     0.42564805
     0.55555556     0.78361470     0.42564805
     0.55555556     0.98361470     0.42564805
     0.66666667     0.18361470     0.42564805
     0.66666667     0.38361470     0.42564805
     0.66666667     0.58361470     0.42564805
     0.66666667     0.78361470     0.42564805
     0.66666667     0.98361470     0.42564805
     0.77777778     0.18361470     0.42564805
     0.77777778     0.38361470     0.42564805
     0.77777778     0.58361470     0.42564805
     0.77777778     0.78361470     0.42564805
     0.77777778     0.98361470     0.42564805
     0.88888889     0.18361470     0.42564805
     0.88888889     0.38361470     0.42564805
     0.88888889     0.58361470     0.42564805
     0.88888889     0.78361470     0.42564805
     0.88888889     0.98361470     0.42564805
     1.00000000     0.18361470     0.42564805
     1.00000000     0.38361470     0.42564805
     1.00000000     0.58361470     0.42564805
     1.00000000     0.78361470     0.42564805
     1.00000000     0.98361470     0.42564805
    -0.01265058     0.11385519     0.68057460
     0.09604508     0.13559432     0.68057460
     0.07430595     0.33124649     0.68057460
     0.05256681     0.52689867     0.68057460
     0.03082768     0.72255084     0.68057460
     0.00908855     0.91820301     0.68057460
     0.20474073     0.15733345     0.68057460
     0.18300160     0.35298562     0.68057460
     0.16126247     0.54863780     0.68057460
     0.13952334     0.74428997     0.68057460
     0.11778421     0.93994215     0.68057460
     0.31343638     0.17907258     0.68057460
     0.29169725     0.37472475     0.68057460
     0.26995812     0.57037693     0.68057460
     0.24821899     0.76602910     0.68057460
     0.22647986     0.96168128     0.68057460
     0.42213203     0.20081171     0.68057460
     0.40039290     0.39646388     0.68057460
     0.37865377     0.59211606     0.68057460
     0.35691464     0.78776823     0.68057460
     0.33517551     0.98342041     0.68057460
     0.53082768     0.22255084     0.68057460
     0.50908855     0.41820301     0.68057460
     0.48734942     0.61385519     0.68057460
     0.46561029     0.80950736     0.68057460
     0.44387116     1.00515954     0.68057460
     0.63952334     0.24428997     0.68057460
     0.61778421     0.43994215     0.68057460
     0.59604508     0.63559432     0.68057460
     0.57430595     0.83124649     0.68057460
     0.55256681     1.02689867     0.68057460
     0.74821899     0.26602910     0.68057460
     0.72647986     0.46168128     0.68057460
     0.70474073     0.65733345     0.68057460
     0.68300160     0.85298562     0.68057460
     0.66126247     1.04863780     0.68057460
     0.85691464     0.28776823     0.68057460
     0.83517551     0.48342041     0.68057460
     0.81343638     0.67907258     0.68057460
     0.79169725     0.87472475     0.68057460
     0.76995812     1.07037693     0.68057460
     0.96561029     0.30950736     0.68057460
     0.94387116     0.50515954     0.68057460
     0.92213203     0.70081171     0.68057460
     0.90039290     0.89646388     0.68057460
     0.87865377     1.09211606     0.68057460
    -0.00907684     0.08169159     0.57434655
     0.09961881     0.10343072     0.57434655
     0.07787968     0.29908289     0.57434655
     0.05614055     0.49473507     0.57434655
     0.03440142     0.69038724     0.57434655
     0.01266229     0.88603942     0.57434655
     0.20831446     0.12516985     0.57434655
     0.18657533     0.32082203     0.57434655
     0.16483620     0.51647420     0.57434655
     0.14309707     0.71212637     0.57434655
     0.12135794     0.90777855     0.57434655
     0.31701011     0.14690898     0.57434655
     0.29527098     0.34256116     0.57434655
     0.27353185     0.53821333     0.57434655
     0.25179272     0.73386550     0.57434655
     0.23005359     0.92951768     0.57434655
     0.42570577     0.16864811     0.57434655
     0.40396663     0.36430029     0.57434655
     0.38222750     0.55995246     0.57434655
     0.36048837     0.75560463     0.57434655
     0.33874924     0.95125681     0.57434655
     0.53440142     0.19038724     0.57434655
     0.51266229     0.38603942     0.57434655
     0.49092316     0.58169159     0.57434655
     0.46918403     0.77734376     0.57434655
     0.44744490     0.97299594     0.57434655
     0.64309707     0.21212637     0.57434655
     0.62135794     0.40777855     0.57434655
     0.59961881     0.60343072     0.57434655
     0.57787968     0.79908289     0.57434655
     0.55614055     0.99473507     0.57434655
     0.75179272     0.23386550     0.57434655
     0.73005359     0.42951768     0.57434655
     0.70831446     0.62516985     0.57434655
     0.68657533     0.82082203     0.57434655
     0.66483620     1.01647420     0.57434655
     0.86048837     0.25560463     0.57434655
     0.83874924     0.45125681     0.57434655
     0.81701011     0.64690898     0.57434655
     0.79527098     0.84256116     0.57434655
     0.77353185     1.03821333     0.57434655
     0.96918403     0.27734376     0.57434655
     0.94744490     0.47299594     0.57434655
     0.92570577     0.66864811     0.57434655
     0.90396663     0.86430029     0.57434655
     0.88222750     1.05995246     0.57434655
     0.05255510     0.02700406     0.57434655
     0.16125076     0.04874319     0.57434655
     0.13951163     0.24439537     0.57434655
     0.11777250     0.44004754     0.57434655
     0.09603336     0.63569972     0.57434655
     0.07429423     0.83135189     0.57434655
     0.26994641     0.07048232     0.57434655
     0.24820728     0.26613450     0.57434655
     0.22646815     0.46178667     0.57434655
     0.20472902     0.65743885     0.57434655
     0.18298989     0.85309102     0.57434655
     0.37864206     0.09222145     0.57434655
     0.35690293     0.28787363     0.57434655
     0.33516380     0.48352580     0.57434655
     0.31342467     0.67917798     0.57434655
     0.29168554     0.87483015     0.57434655
     0.48733771     0.11396058     0.57434655
     0.46559858     0.30961276     0.57434655
     0.44385945     0.50526493     0.57434655
     0.42212032     0.70091711     0.57434655
     0.40038119     0.89656928     0.57434655
     0.59603336     0.13569972     0.57434655
     0.57429423     0.33135189     0.57434655
     0.55255510     0.52700406     0.57434655
     0.53081597     0.72265624     0.57434655
     0.50907684     0.91830841     0.57434655
     0.70472902     0.15743885     0.57434655
     0.68298989     0.35309102     0.57434655
     0.66125076     0.54874319     0.57434655
     0.63951163     0.74439537     0.57434655
     0.61777250     0.94004754     0.57434655
     0.81342467     0.17917798     0.57434655
     0.79168554     0.37483015     0.57434655
     0.76994641     0.57048232     0.57434655
     0.74820728     0.76613450     0.57434655
     0.72646815     0.96178667     0.57434655
     0.92212032     0.20091711     0.57434655
     0.90038119     0.39656928     0.57434655
     0.87864206     0.59222145     0.57434655
     0.85690293     0.78787363     0.57434655
     0.83516380     0.98352580     0.57434655
     1.03081597     0.22265624     0.57434655
     1.00907684     0.41830841     0.57434655
     0.98733771     0.61396058     0.57434655
     0.96559858     0.80961276     0.57434655
     0.94385945     1.00526493     0.57434655
     0.03438971     0.19049264     0.68057460
     0.14308536     0.21223177     0.68057460
     0.12134623     0.40788394     0.68057460
     0.09960710     0.60353612     0.68057460
     0.07786797     0.79918829     0.68057460
     0.05612884     0.99484046     0.68057460
     0.25178101     0.23397090     0.68057460
     0.23004188     0.42962307     0.68057460
     0.20830275     0.62527525     0.68057460
     0.18656362     0.82092742     0.68057460
     0.16482449     1.01657959     0.68057460
     0.36047666     0.25571003     0.68057460
     0.33873753     0.45136220     0.68057460
     0.31699840     0.64701438     0.68057460
     0.29525927     0.84266655     0.68057460
     0.27352014     1.03831872     0.68057460
     0.46917232     0.27744916     0.68057460
     0.44743319     0.47310133     0.68057460
     0.42569405     0.66875351     0.68057460
     0.40395492     0.86440568     0.68057460
     0.38221579     1.06005785     0.68057460
     0.57786797     0.29918829     0.68057460
     0.55612884     0.49484046     0.68057460
     0.53438971     0.69049264     0.68057460
     0.51265058     0.88614481     0.68057460
     0.49091145     1.08179699     0.68057460
     0.68656362     0.32092742     0.68057460
     0.66482449     0.51657959     0.68057460
     0.64308536     0.71223177     0.68057460
     0.62134623     0.90788394     0.68057460
     0.59960710     1.10353612     0.68057460
     0.79525927     0.34266655     0.68057460
     0.77352014     0.53831872     0.68057460
     0.75178101     0.73397090     0.68057460
     0.73004188     0.92962307     0.68057460
     0.70830275     1.12527525     0.68057460
     0.90395492     0.36440568     0.68057460
     0.88221579     0.56005785     0.68057460
     0.86047666     0.75571003     0.68057460
     0.83873753     0.95136220     0.68057460
     0.81699840     1.14701438     0.68057460
     1.01265058     0.38614481     0.68057460
     0.99091145     0.58179699     0.68057460
     0.96917232     0.77744916     0.68057460
     0.94743319     0.97310133     0.68057460
     0.92569405     1.16875351     0.68057460
