Generated by Twist2D
    1.0
      56.04899379       0.00000000       0.00000000
       0.00000000      39.87437696       0.00000000
       0.00000000       0.00000000      20.00000000
    P
    1228
Direct
     0.02941176     0.06465850     0.42564718
     0.02941176     0.17576961     0.42564718
     0.02941176     0.28688072     0.42564718
     0.02941176     0.39799184     0.42564718
     0.02941176     0.50910295     0.42564718
     0.02941176     0.62021406     0.42564718
     0.02941176     0.73132517     0.42564718
     0.02941176     0.84243628     0.42564718
     0.02941176     0.95354739     0.42564718
     0.08823529     0.06465850     0.42564718
     0.08823529     0.17576961     0.42564718
     0.08823529     0.28688072     0.42564718
     0.08823529     0.39799184     0.42564718
     0.08823529     0.50910295     0.42564718
     0.08823529     0.62021406     0.42564718
     0.08823529     0.73132517     0.42564718
     0.08823529     0.84243628     0.42564718
     0.08823529     0.95354739     0.42564718
     0.14705882     0.06465850     0.42564718
     0.14705882     0.17576961     0.42564718
     0.14705882     0.28688072     0.42564718
     0.14705882     0.39799184     0.42564718
     0.14705882     0.50910295     0.42564718
     0.14705882     0.62021406     0.42564718
     0.14705882     0.73132517     0.42564718
     0.14705882     0.84243628     0.42564718
     0.14705882     0.95354739     0.42564718
     0.20588235     0.06465850     0.42564718
     0.20588235     0.17576961     0.42564718
     0.20588235     0.28688072     0.42564718
     0.20588235     0.39799184     0.42564718
     0.20588235     0.50910295     0.42564718
     0.20588235     0.62021406     0.42564718
     0.20588235     0.73132517     0.42564718
     0.20588235     0.84243628     0.42564718
     0.20588235     0.95354739     0.42564718
     0.26470588     0.06465850     0.42564718
     0.26470588     0.17576961     0.42564718
     0.26470588     0.28688072     0.42564718
     0.26470588     0.39799184     0.42564718
     0.26470588     0.50910295     0.42564718
     0.26470588     0.62021406     0.42564718
     0.26470588     0.73132517     0.42564718
     0.26470588     0.84243628     0.42564718
     0.26470588     0.95354739     0.42564718
     0.32352941     0.06465850     0.42564718
     0.32352941     0.17576961     0.42564718
     0.32352941     0.28688072     0.42564718
     0.32352941     0.39799184     0.42564718
     0.32352941     0.50910295     0.42564718
     0.32352941     0.62021406     0.42564718
     0.32352941     0.73132517     0.42564718
     0.32352941     0.84243628     0.42564718
     0.32352941     0.95354739     0.42564718
     0.38235294     0.06465850     0.42564718
     0.38235294     0.17576961     0.42564718
     0.38235294     0.28688072     0.42564718
     0.38235294     0.39799184     0.42564718
     0.38235294     0.50910295     0.42564718
     0.38235294     0.62021406     0.42564718
     0.38235294     0.73132517     0.42564718
     0.38235294     0.84243628     0.42564718
     0.38235294     0.95354739     0.42564718
     0.44117647     0.06465850     0.42564718
     0.44117647     0.17576961     0.42564718
     0.44117647     0.28688072     0.42564718
     0.44117647     0.39799184     0.42564718
     0.44117647     0.50910295     0.42564718
     0.44117647     0.62021406     0.42564718
     0.44117647     0.73132517     0.42564718
     0.44117647     0.84243628     0.42564718
     0.44117647     0.95354739     0.42564718
     0.50000000     0.06465850     0.42564718
     0.50000000     0.17576961     0.42564718
     0.50000000     0.28688072     0.42564718
     0.50000000     0.39799184     0.42564718
     0.50000000     0.50910295     0.42564718
     0.50000000     0.62021406     0.42564718
     0.50000000     0.73132517     0.42564718
     0.50000000     0.84243628     0.42564718
     0.50000000     0.95354739     0.42564718
     0.55882353     0.06465850     0.42564718
     0.55882353     0.17576961     0.42564718
     0.55882353     0.28688072     0.42564718
     0.55882353     0.39799184     0.42564718
     0.55882353     0.50910295     0.42564718
     0.55882353     0.62021406     0.42564718
     0.55882353     0.73132517     0.42564718
     0.55882353     0.84243628     0.42564718
     0.55882353     0.95354739     0.42564718
     0.61764706     0.06465850     0.42564718
     0.61764706     0.17576961     0.42564718
     0.61764706     0.28688072     0.42564718
     0.61764706     0.39799184     0.42564718
     0.61764706     0.50910295     0.42564718
     0.61764706     0.62021406     0.42564718
     0.61764706     0.73132517     0.42564718
     0.61764706     0.84243628     0.42564718
     0.61764706     0.95354739     0.42564718
     0.67647059     0.06465850     0.42564718
     0.67647059     0.17576961     0.42564718
     0.67647059     0.28688072     0.42564718
     0.67647059     0.39799184     0.42564718
     0.67647059     0.50910295     0.42564718
     0.67647059     0.62021406     0.42564718
     0.67647059     0.73132517     0.42564718
     0.67647059     0.84243628     0.42564718
     0.67647059     0.95354739     0.42564718
     0.73529412     0.06465850     0.42564718
     0.73529412     0.17576961     0.42564718
     0.73529412     0.28688072     0.42564718
     0.73529412     0.39799184     0.42564718
     0.73529412     0.50910295     0.42564718
     0.73529412     0.62021406     0.42564718
     0.73529412     0.73132517     0.42564718
     0.73529412     0.84243628     0.42564718
     0.73529412     0.95354739     0.42564718
     0.79411765     0.06465850     0.42564718
     0.79411765     0.17576961     0.42564718
     0.79411765     0.28688072     0.42564718
     0.79411765     0.39799184     0.42564718
     0.79411765     0.50910295     0.42564718
     0.79411765     0.62021406     0.42564718
     0.79411765     0.73132517     0.42564718
     0.79411765     0.84243628     0.42564718
     0.79411765     0.95354739     0.42564718
     0.85294118     0.06465850     0.42564718
     0.85294118     0.17576961     0.42564718
     0.85294118     0.28688072     0.42564718
     0.85294118     0.39799184     0.42564718
     0.85294118     0.50910295     0.42564718
     0.85294118     0.62021406     0.42564718
     0.85294118     0.73132517     0.42564718
     0.85294118     0.84243628     0.42564718
     0.85294118     0.95354739     0.42564718
     0.91176471     0.06465850     0.42564718
     0.91176471     0.17576961     0.42564718
     0.91176471     0.28688072     0.42564718
     0.91176471     0.39799184     0.42564718
     0.91176471     0.50910295     0.42564718
     0.91176471     0.62021406     0.42564718
     0.91176471     0.73132517     0.42564718
     0.91176471     0.84243628     0.42564718
     0.91176471     0.95354739     0.42564718
     0.97058824     0.06465850     0.42564718
     0.97058824     0.17576961     0.42564718
     0.97058824     0.28688072     0.42564718
     0.97058824     0.39799184     0.42564718
     0.97058824     0.50910295     0.42564718
     0.97058824     0.62021406     0.42564718
     0.97058824     0.73132517     0.42564718
     0.97058824     0.84243628     0.42564718
     0.97058824     0.95354739     0.42564718
     0.02941176     0.04639276     0.31941913
     0.02941176     0.15750387     0.31941913
     0.02941176     0.26861498     0.31941913
     0.02941176     0.37972609     0.31941913
     0.02941176     0.49083720     0.31941913
     0.02941176     0.60194831     0.31941913
     0.02941176     0.71305942     0.31941913
     0.02941176     0.82417053     0.31941913
     0.02941176     0.93528164     0.31941913
     0.08823529     0.04639276     0.31941913
     0.08823529     0.15750387     0.31941913
     0.08823529     0.26861498     0.31941913
     0.08823529     0.37972609     0.31941913
     0.08823529     0.49083720     0.31941913
     0.08823529     0.60194831     0.31941913
     0.08823529     0.71305942     0.31941913
     0.08823529     0.82417053     0.31941913
     0.08823529     0.93528164     0.31941913
     0.14705882     0.04639276     0.31941913
     0.14705882     0.15750387     0.31941913
     0.14705882     0.26861498     0.31941913
     0.14705882     0.37972609     0.31941913
     0.14705882     0.49083720     0.31941913
     0.14705882     0.60194831     0.31941913
     0.14705882     0.71305942     0.31941913
     0.14705882     0.82417053     0.31941913
     0.14705882     0.93528164     0.31941913
     0.20588235     0.04639276     0.31941913
     0.20588235     0.15750387     0.31941913
     0.20588235     0.26861498     0.31941913
     0.20588235     0.37972609     0.31941913
     0.20588235     0.49083720     0.31941913
     0.20588235     0.60194831     0.31941913
     0.20588235     0.71305942     0.31941913
     0.20588235     0.82417053     0.31941913
     0.20588235     0.93528164     0.31941913
     0.26470588     0.04639276     0.31941913
     0.26470588     0.15750387     0.31941913
     0.26470588     0.26861498     0.31941913
     0.26470588     0.37972609     0.31941913
     0.26470588     0.49083720     0.31941913
     0.26470588     0.60194831     0.31941913
     0.26470588     0.71305942     0.31941913
     0.26470588     0.82417053     0.31941913
     0.26470588     0.93528164     0.31941913
     0.32352941     0.04639276     0.31941913
     0.32352941     0.15750387     0.31941913
     0.32352941     0.26861498     0.31941913
     0.32352941     0.37972609     0.31941913
     0.32352941     0.49083720     0.31941913
     0.32352941     0.60194831     0.31941913
     0.32352941     0.71305942     0.31941913
     0.32352941     0.82417053     0.31941913
     0.32352941     0.93528164     0.31941913
     0.38235294     0.04639276     0.31941913
     0.38235294     0.15750387     0.31941913
     0.38235294     0.26861498     0.31941913
     0.38235294     0.37972609     0.31941913
     0.38235294     0.49083720     0.31941913
     0.38235294     0.60194831     0.31941913
     0.38235294     0.71305942     0.31941913
     0.38235294     0.82417053     0.31941913
     0.38235294     0.93528164     0.31941913
     0.44117647     0.04639276     0.31941913
     0.44117647     0.15750387     0.31941913
     0.44117647     0.26861498     0.31941913
     0.44117647     0.37972609     0.31941913
     0.44117647     0.49083720     0.31941913
     0.44117647     0.60194831     0.31941913
     0.44117647     0.71305942     0.31941913
     0.44117647     0.82417053     0.31941913
     0.44117647     0.93528164     0.31941913
     0.50000000     0.04639276     0.31941913
     0.50000000     0.15750387     0.31941913
     0.50000000     0.26861498     0.31941913
     0.50000000     0.37972609     0.31941913
     0.50000000     0.49083720     0.31941913
     0.50000000     0.60194831     0.31941913
     0.50000000     0.71305942     0.31941913
     0.50000000     0.82417053     0.31941913
     0.50000000     0.93528164     0.31941913
     0.55882353     0.04639276     0.31941913
     0.55882353     0.15750387     0.31941913
     0.55882353     0.26861498     0.31941913
     0.55882353     0.37972609     0.31941913
     0.55882353     0.49083720     0.31941913
     0.55882353     0.60194831     0.31941913
     0.55882353     0.71305942     0.31941913
     0.55882353     0.82417053     0.31941913
     0.55882353     0.93528164     0.31941913
     0.61764706     0.04639276     0.31941913
     0.61764706     0.15750387     0.31941913
     0.61764706     0.26861498     0.31941913
     0.61764706     0.37972609     0.31941913
     0.61764706     0.49083720     0.31941913
     0.61764706     0.60194831     0.31941913
     0.61764706     0.71305942     0.31941913
     0.61764706     0.82417053     0.31941913
     0.61764706     0.93528164     0.31941913
     0.67647059     0.04639276     0.31941913
     0.67647059     0.15750387     0.31941913
     0.67647059     0.26861498     0.31941913
     0.67647059     0.37972609     0.31941913
     0.67647059     0.49083720     0.31941913
     0.67647059     0.60194831     0.31941913
     0.67647059     0.71305942     0.31941913
     0.67647059     0.82417053     0.31941913
     0.67647059     0.93528164     0.31941913
     0.73529412     0.04639276     0.31941913
     0.73529412     0.15750387     0.31941913
     0.73529412     0.26861498     0.31941913
     0.73529412     0.37972609     0.31941913
     0.73529412     0.49083720     0.31941913
     0.73529412     0.60194831     0.31941913
     0.73529412     0.71305942     0.31941913
     0.73529412     0.82417053     0.31941913
     0.73529412     0.93528164     0.31941913
     0.79411765     0.04639276     0.31941913
     0.79411765     0.15750387     0.31941913
     0.79411765     0.26861498     0.31941913
     0.79411765     0.37972609     0.31941913
     0.79411765     0.49083720     0.31941913
     0.79411765     0.60194831     0.31941913
     0.79411765     0.71305942     0.31941913
     0.79411765     0.82417053     0.31941913
     0.79411765     0.93528164     0.31941913
     0.85294118     0.04639276     0.31941913
     0.85294118     0.15750387     0.31941913
     0.85294118     0.26861498     0.31941913
     0.85294118     0.37972609     0.31941913
     0.85294118     0.49083720     0.31941913
     0.85294118     0.60194831     0.31941913
     0.85294118     0.71305942     0.31941913
     0.85294118     0.82417053     0.31941913
     0.85294118     0.93528164     0.31941913
     0.91176471     0.04639276     0.31941913
     0.91176471     0.15750387     0.31941913
     0.91176471     0.26861498     0.31941913
     0.91176471     0.37972609     0.31941913
     0.91176471     0.49083720     0.31941913
     0.91176471     0.60194831     0.31941913
     0.91176471     0.71305942     0.31941913
     0.91176471     0.82417053     0.31941913
     0.91176471     0.93528164     0.31941913
     0.97058824     0.04639276     0.31941913
     0.97058824     0.15750387     0.31941913
     0.97058824     0.26861498     0.31941913
     0.97058824     0.37972609     0.31941913
     0.97058824     0.49083720     0.31941913
     0.97058824     0.60194831     0.31941913
     0.97058824     0.71305942     0.31941913
     0.97058824     0.82417053     0.31941913
     0.97058824     0.93528164     0.31941913
     0.05882353     0.00916280     0.31941913
     0.05882353     0.12027391     0.31941913
     0.05882353     0.23138502     0.31941913
     0.05882353     0.34249613     0.31941913
     0.05882353     0.45360725     0.31941913
     0.05882353     0.56471836     0.31941913
     0.05882353     0.67582947     0.31941913
     0.05882353     0.78694058     0.31941913
     0.05882353     0.89805169     0.31941913
     0.11764706     0.00916280     0.31941913
     0.11764706     0.12027391     0.31941913
     0.11764706     0.23138502     0.31941913
     0.11764706     0.34249613     0.31941913
     0.11764706     0.45360725     0.31941913
     0.11764706     0.56471836     0.31941913
     0.11764706     0.67582947     0.31941913
     0.11764706     0.78694058     0.31941913
     0.11764706     0.89805169     0.31941913
     0.17647059     0.00916280     0.31941913
     0.17647059     0.12027391     0.31941913
     0.17647059     0.23138502     0.31941913
     0.17647059     0.34249613     0.31941913
     0.17647059     0.45360725     0.31941913
     0.17647059     0.56471836     0.31941913
     0.17647059     0.67582947     0.31941913
     0.17647059     0.78694058     0.31941913
     0.17647059     0.89805169     0.31941913
     0.23529412     0.00916280     0.31941913
     0.23529412     0.12027391     0.31941913
     0.23529412     0.23138502     0.31941913
     0.23529412     0.34249613     0.31941913
     0.23529412     0.45360725     0.31941913
     0.23529412     0.56471836     0.31941913
     0.23529412     0.67582947     0.31941913
     0.23529412     0.78694058     0.31941913
     0.23529412     0.89805169     0.31941913
     0.29411765     0.00916280     0.31941913
     0.29411765     0.12027391     0.31941913
     0.29411765     0.23138502     0.31941913
     0.29411765     0.34249613     0.31941913
     0.29411765     0.45360725     0.31941913
     0.29411765     0.56471836     0.31941913
     0.29411765     0.67582947     0.31941913
     0.29411765     0.78694058     0.31941913
     0.29411765     0.89805169     0.31941913
     0.35294118     0.00916280     0.31941913
     0.35294118     0.12027391     0.31941913
     0.35294118     0.23138502     0.31941913
     0.35294118     0.34249613     0.31941913
     0.35294118     0.45360725     0.31941913
     0.35294118     0.56471836     0.31941913
     0.35294118     0.67582947     0.31941913
     0.35294118     0.78694058     0.31941913
     0.35294118     0.89805169     0.31941913
     0.41176471     0.00916280     0.31941913
     0.41176471     0.12027391     0.31941913
     0.41176471     0.23138502     0.31941913
     0.41176471     0.34249613     0.31941913
     0.41176471     0.45360725     0.31941913
     0.41176471     0.56471836     0.31941913
     0.41176471     0.67582947     0.31941913
     0.41176471     0.78694058     0.31941913
     0.41176471     0.89805169     0.31941913
     0.47058824     0.00916280     0.31941913
     0.47058824     0.12027391     0.31941913
     0.47058824     0.23138502     0.31941913
     0.47058824     0.34249613     0.31941913
     0.47058824     0.45360725     0.31941913
     0.47058824     0.56471836     0.31941913
     0.47058824     0.67582947     0.31941913
     0.47058824     0.78694058     0.31941913
     0.47058824     0.89805169     0.31941913
     0.52941176     0.00916280     0.31941913
     0.52941176     0.12027391     0.31941913
     0.52941176     0.23138502     0.31941913
     0.52941176     0.34249613     0.31941913
     0.52941176     0.45360725     0.31941913
     0.52941176     0.56471836     0.31941913
     0.52941176     0.67582947     0.31941913
     0.52941176     0.78694058     0.31941913
     0.52941176     0.89805169     0.31941913
     0.58823529     0.00916280     0.31941913
     0.58823529     0.12027391     0.31941913
     0.58823529     0.23138502     0.31941913
     0.58823529     0.34249613     0.31941913
     0.58823529     0.45360725     0.31941913
     0.58823529     0.56471836     0.31941913
     0.58823529     0.67582947     0.31941913
     0.58823529     0.78694058     0.31941913
     0.58823529     0.89805169     0.31941913
     0.64705882     0.00916280     0.31941913
     0.64705882     0.12027391     0.31941913
     0.64705882     0.23138502     0.31941913
     0.64705882     0.34249613     0.31941913
     0.64705882     0.45360725     0.31941913
     0.64705882     0.56471836     0.31941913
     0.64705882     0.67582947     0.31941913
     0.64705882     0.78694058     0.31941913
     0.64705882     0.89805169     0.31941913
     0.70588235     0.00916280     0.31941913
     0.70588235     0.12027391     0.31941913
     0.70588235     0.23138502     0.31941913
     0.70588235     0.34249613     0.31941913
     0.70588235     0.45360725     0.31941913
     0.70588235     0.56471836     0.31941913
     0.70588235     0.67582947     0.31941913
     0.70588235     0.78694058     0.31941913
     0.70588235     0.89805169     0.31941913
     0.76470588     0.00916280     0.31941913
     0.76470588     0.12027391     0.31941913
     0.76470588     0.23138502     0.31941913
     0.76470588     0.34249613     0.31941913
     0.76470588     0.45360725     0.31941913
     0.76470588     0.56471836     0.31941913
     0.76470588     0.67582947     0.31941913
     0.76470588     0.78694058     0.31941913
     0.76470588     0.89805169     0.31941913
     0.82352941     0.00916280     0.31941913
     0.82352941     0.12027391     0.31941913
     0.82352941     0.23138502     0.31941913
     0.82352941     0.34249613     0.31941913
     0.82352941     0.45360725     0.31941913
     0.82352941     0.56471836     0.31941913
     0.82352941     0.67582947     0.31941913
     0.82352941     0.78694058     0.31941913
     0.82352941     0.89805169     0.31941913
     0.88235294     0.00916280     0.31941913
     0.88235294     0.12027391     0.31941913
     0.88235294     0.23138502     0.31941913
     0.88235294     0.34249613     0.31941913
     0.88235294     0.45360725     0.31941913
     0.88235294     0.56471836     0.31941913
     0.88235294     0.67582947     0.31941913
     0.88235294     0.78694058     0.31941913
     0.88235294     0.89805169     0.31941913
     0.94117647     0.00916280     0.31941913
     0.94117647     0.12027391     0.31941913
     0.94117647     0.23138502     0.31941913
     0.94117647     0.34249613     0.31941913
     0.94117647     0.45360725     0.31941913
     0.94117647     0.56471836     0.31941913
     0.94117647     0.67582947     0.31941913
     0.94117647     0.78694058     0.31941913
     0.94117647     0.89805169     0.31941913
     1.00000000     0.00916280     0.31941913
     1.00000000     0.12027391     0.31941913
     1.00000000     0.23138502     0.31941913
     1.00000000     0.34249613     0.31941913
     1.00000000     0.45360725     0.31941913
     1.00000000     0.56471836     0.31941913
     1.00000000     0.67582947     0.31941913
     1.00000000     0.78694058     0.31941913
     1.00000000     0.89805169     0.31941913
     0.05882353     0.10200816     0.42564718
     0.05882353     0.21311928     0.42564718
     0.05882353     0.32423039     0.42564718
     0.05882353     0.43534150     0.42564718
     0.05882353     0.54645261     0.42564718
     0.05882353     0.65756372     0.42564718
     0.05882353     0.76867483     0.42564718
     0.05882353     0.87978594     0.42564718
     0.05882353     0.99089705     0.42564718
     0.11764706     0.10200816     0.42564718
     0.11764706     0.21311928     0.42564718
     0.11764706     0.32423039     0.42564718
     0.11764706     0.43534150     0.42564718
     0.11764706     0.54645261     0.42564718
     0.11764706     0.65756372     0.42564718
     0.11764706     0.76867483     0.42564718
     0.11764706     0.87978594     0.42564718
     0.11764706     0.99089705     0.42564718
     0.17647059     0.10200816     0.42564718
     0.17647059     0.21311928     0.42564718
     0.17647059     0.32423039     0.42564718
     0.17647059     0.43534150     0.42564718
     0.17647059     0.54645261     0.42564718
     0.17647059     0.65756372     0.42564718
     0.17647059     0.76867483     0.42564718
     0.17647059     0.87978594     0.42564718
     0.17647059     0.99089705     0.42564718
     0.23529412     0.10200816     0.42564718
     0.23529412     0.21311928     0.42564718
     0.23529412     0.32423039     0.42564718
     0.23529412     0.43534150     0.42564718
     0.23529412     0.54645261     0.42564718
     0.23529412     0.65756372     0.42564718
     0.23529412     0.76867483     0.42564718
     0.23529412     0.87978594     0.42564718
     0.23529412     0.99089705     0.42564718
     0.29411765     0.10200816     0.42564718
     0.29411765     0.21311928     0.42564718
     0.29411765     0.32423039     0.42564718
     0.29411765     0.43534150     0.42564718
     0.29411765     0.54645261     0.42564718
     0.29411765     0.65756372     0.42564718
     0.29411765     0.76867483     0.42564718
     0.29411765     0.87978594     0.42564718
     0.29411765     0.99089705     0.42564718
     0.35294118     0.10200816     0.42564718
     0.35294118     0.21311928     0.42564718
     0.35294118     0.32423039     0.42564718
     0.35294118     0.43534150     0.42564718
     0.35294118     0.54645261     0.42564718
     0.35294118     0.65756372     0.42564718
     0.35294118     0.76867483     0.42564718
     0.35294118     0.87978594     0.42564718
     0.35294118     0.99089705     0.42564718
     0.41176471     0.10200816     0.42564718
     0.41176471     0.21311928     0.42564718
     0.41176471     0.32423039     0.42564718
     0.41176471     0.43534150     0.42564718
     0.41176471     0.54645261     0.42564718
     0.41176471     0.65756372     0.42564718
     0.41176471     0.76867483     0.42564718
     0.41176471     0.87978594     0.42564718
     0.41176471     0.99089705     0.42564718
     0.47058824     0.10200816     0.42564718
     0.47058824     0.21311928     0.42564718
     0.47058824     0.32423039     0.42564718
     0.47058824     0.43534150     0.42564718
     0.47058824     0.54645261     0.42564718
     0.47058824     0.65756372     0.42564718
     0.47058824     0.76867483     0.42564718
     0.47058824     0.87978594     0.42564718
     0.47058824     0.99089705     0.42564718
     0.52941176     0.10200816     0.42564718
     0.52941176     0.21311928     0.42564718
     0.52941176     0.32423039     0.42564718
     0.52941176     0.43534150     0.42564718
     0.52941176     0.54645261     0.42564718
     0.52941176     0.65756372     0.42564718
     0.52941176     0.76867483     0.42564718
     0.52941176     0.87978594     0.42564718
     0.52941176     0.99089705     0.42564718
     0.58823529     0.10200816     0.42564718
     0.58823529     0.21311928     0.42564718
     0.58823529     0.32423039     0.42564718
     0.58823529     0.43534150     0.42564718
     0.58823529     0.54645261     0.42564718
     0.58823529     0.65756372     0.42564718
     0.58823529     0.76867483     0.42564718
     0.58823529     0.87978594     0.42564718
     0.58823529     0.99089705     0.42564718
     0.64705882     0.10200816     0.42564718
     0.64705882     0.21311928     0.42564718
     0.64705882     0.32423039     0.42564718
     0.64705882     0.43534150     0.42564718
     0.64705882     0.54645261     0.42564718
     0.64705882     0.65756372     0.42564718
     0.64705882     0.76867483     0.42564718
     0.64705882     0.87978594     0.42564718
     0.64705882     0.99089705     0.42564718
     0.70588235     0.10200816     0.42564718
     0.70588235     0.21311928     0.42564718
     0.70588235     0.32423039     0.42564718
     0.70588235     0.43534150     0.42564718
     0.70588235     0.54645261     0.42564718
     0.70588235     0.65756372     0.42564718
     0.70588235     0.76867483     0.42564718
     0.70588235     0.87978594     0.42564718
     0.70588235     0.99089705     0.42564718
     0.76470588     0.10200816     0.42564718
     0.76470588     0.21311928     0.42564718
     0.76470588     0.32423039     0.42564718
     0.76470588     0.43534150     0.42564718
     0.76470588     0.54645261     0.42564718
     0.76470588     0.65756372     0.42564718
     0.76470588     0.76867483     0.42564718
     0.76470588     0.87978594     0.42564718
     0.76470588     0.99089705     0.42564718
     0.82352941     0.10200816     0.42564718
     0.82352941     0.21311928     0.42564718
     0.82352941     0.32423039     0.42564718
     0.82352941     0.43534150     0.42564718
     0.82352941     0.54645261     0.42564718
     0.82352941     0.65756372     0.42564718
     0.82352941     0.76867483     0.42564718
     0.82352941     0.87978594     0.42564718
     0.82352941     0.99089705     0.42564718
     0.88235294     0.10200816     0.42564718
     0.88235294     0.21311928     0.42564718
     0.88235294     0.32423039     0.42564718
     0.88235294     0.43534150     0.42564718
     0.88235294     0.54645261     0.42564718
     0.88235294     0.65756372     0.42564718
     0.88235294     0.76867483     0.42564718
     0.88235294     0.87978594     0.42564718
     0.88235294     0.99089705     0.42564718
     0.94117647     0.10200816     0.42564718
     0.94117647     0.21311928     0.42564718
     0.94117647     0.32423039     0.42564718
     0.94117647     0.43534150     0.42564718
     0.94117647     0.54645261     0.42564718
     0.94117647     0.65756372     0.42564718
     0.94117647     0.76867483     0.42564718
     0.94117647     0.87978594     0.42564718
     0.94117647     0.99089705     0.42564718
     1.00000000     0.10200816     0.42564718
     1.00000000     0.21311928     0.42564718
     1.00000000     0.32423039     0.42564718
     1.00000000     0.43534150     0.42564718
     1.00000000     0.54645261     0.42564718
     1.00000000     0.65756372     0.42564718
     1.00000000     0.76867483     0.42564718
     1.00000000     0.87978594     0.42564718
     1.00000000     0.99089705     0.42564718
    -0.00377874     0.06423864     0.68057335
     0.05466281     0.07073215     0.68057335
     0.04816931     0.18112176     0.68057335
     0.04167580     0.29151137     0.68057335
     0.03518230     0.40190098     0.68057335
     0.02868879     0.51229059     0.68057335
     0.02219528     0.62268020     0.68057335
     0.01570178     0.73306981     0.68057335
     0.00920827     0.84345942     0.68057335
     0.00271476     0.95384903     0.68057335
     0.11310437     0.07722565     0.68057335
     0.10661087     0.18761527     0.68057335
     0.10011736     0.29800488     0.68057335
     0.09362385     0.40839449     0.68057335
     0.08713035     0.51878410     0.68057335
     0.08063684     0.62917371     0.68057335
     0.07414333     0.73956332     0.68057335
     0.06764983     0.84995293     0.68057335
     0.06115632     0.96034254     0.68057335
     0.17154593     0.08371916     0.68057335
     0.16505243     0.19410877     0.68057335