Generated by Twist2D
    1.0
      23.07899744       0.00000000       0.00000000
       0.00000000      17.72194532       0.00000000
       0.00000000       0.00000000      20.00000000
    P
    228
Direct
     0.07142857     0.14548163     0.42564718
     0.07142857     0.39548163     0.42564718
     0.07142857     0.64548163     0.42564718
     0.07142857     0.89548163     0.42564718
     0.21428571     0.14548163     0.42564718
     0.21428571     0.39548163     0.42564718
     0.21428571     0.64548163     0.42564718
     0.21428571     0.89548163     0.42564718
     0.35714286     0.14548163     0.42564718
     0.35714286     0.39548163     0.42564718
     0.35714286     0.64548163     0.42564718
     0.35714286     0.89548163     0.42564718
     0.50000000     0.14548163     0.42564718
     0.50000000     0.39548163     0.42564718
     0.50000000     0.64548163     0.42564718
     0.50000000     0.89548163     0.42564718
     0.64285714     0.14548163     0.42564718
     0.64285714     0.39548163     0.42564718
     0.64285714     0.64548163     0.42564718
     0.64285714     0.89548163     0.42564718
     0.78571429     0.14548163     0.42564718
     0.78571429     0.39548163     0.42564718
     0.78571429     0.64548163     0.42564718
     0.78571429     0.89548163     0.42564718
     0.92857143     0.14548163     0.42564718
     0.92857143     0.39548163     0.42564718
     0.92857143     0.64548163     0.42564718
     0.92857143     0.89548163     0.42564718
     0.07142857     0.10438370     0.31941913
     0.07142857     0.35438370     0.31941913
     0.07142857     0.60438370     0.31941913
     0.07142857     0.85438370     0.31941913
     0.21428571     0.10438370     0.31941913
     0.21428571     0.35438370     0.31941913
     0.21428571     0.60438370     0.31941913
     0.21428571     0.85438370     0.31941913
     0.35714286     0.10438370     0.31941913
     0.35714286     0.35438370     0.31941913
     0.35714286     0.60438370     0.31941913
     0.35714286     0.85438370     0.31941913
     0.50000000     0.10438370     0.31941913
     0.50000000     0.35438370     0.31941913
     0.50000000     0.60438370     0.31941913
     0.50000000     0.85438370     0.31941913
     0.64285714     0.10438370     0.31941913
     0.64285714     0.35438370     0.31941913
     0.64285714     0.60438370     0.31941913
     0.64285714     0.85438370     0.31941913
     0.78571429     0.10438370     0.31941913
     0.78571429     0.35438370     0.31941913
     0.78571429     0.60438370     0.31941913
     0.78571429     0.85438370     0.31941913
     0.92857143     0.10438370     0.31941913
     0.92857143     0.35438370     0.31941913
     0.92857143     0.60438370     0.31941913
     0.92857143     0.85438370     0.31941913
     0.14285714     0.02061630     0.31941913
     0.14285714     0.27061630     0.31941913
     0.14285714     0.52061630     0.31941913
     0.14285714     0.77061630     0.31941913
     0.28571429     0.02061630     0.31941913
     0.28571429     0.27061630     0.31941913
     0.28571429     0.52061630     0.31941913
     0.28571429     0.77061630     0.31941913
     0.42857143     0.02061630     0.31941913
     0.42857143     0.27061630     0.31941913
     0.42857143     0.52061630     0.31941913
     0.42857143     0.77061630     0.31941913
     0.57142857     0.02061630     0.31941913
     0.57142857     0.27061630     0.31941913
     0.57142857     0.52061630     0.31941913
     0.57142857     0.77061630     0.31941913
     0.71428571     0.02061630     0.31941913
     0.71428571     0.27061630     0.31941913
     0.71428571     0.52061630     0.31941913
     0.71428571     0.77061630     0.31941913
     0.85714286     0.02061630     0.31941913
     0.85714286     0.27061630     0.31941913
     0.85714286     0.52061630     0.31941913
     0.85714286     0.77061630     0.31941913
     1.00000000     0.02061630     0.31941913
     1.00000000     0.27061630     0.31941913
     1.00000000     0.52061630     0.31941913
     1.00000000     0.77061630     0.31941913
     0.14285714     0.22951837     0.42564718
     0.14285714     0.47951837     0.42564718
     0.14285714     0.72951837     0.42564718
     0.14285714     0.97951837     0.42564718
     0.28571429     0.22951837     0.42564718
     0.28571429     0.47951837     0.42564718
     0.28571429     0.72951837     0.42564718
     0.28571429     0.97951837     0.42564718
     0.42857143     0.22951837     0.42564718
     0.42857143     0.47951837     0.42564718
     0.42857143     0.72951837     0.42564718
     0.42857143     0.97951837     0.42564718
     0.57142857     0.22951837     0.42564718
     0.57142857     0.47951837     0.42564718
     0.57142857     0.72951837     0.42564718
     0.57142857     0.97951837     0.42564718
     0.71428571     0.22951837     0.42564718
     0.71428571     0.47951837     0.42564718
     0.71428571     0.72951837     0.42564718
     0.71428571     0.97951837     0.42564718
     0.85714286     0.22951837     0.42564718
     0.85714286     0.47951837     0.42564718
     0.85714286     0.72951837     0.42564718
     0.85714286     0.97951837     0.42564718
     1.00000000     0.22951837     0.42564718
     1.00000000     0.47951837     0.42564718
     1.00000000     0.72951837     0.42564718
     1.00000000     0.97951837     0.42564718
    -0.02006643     0.14046502     0.68057335
     0.11786460     0.17494778     0.68057335
     0.08338184     0.41632709     0.68057335
     0.04889909     0.65770640     0.68057335
     0.01441633     0.89908571     0.68057335
     0.25579564     0.20943054     0.68057335
     0.22131288     0.45080985     0.68057335
     0.18683012     0.69218916     0.68057335
     0.15234736     0.93356847     0.68057335
     0.39372667     0.24391330     0.68057335
     0.35924391     0.48529261     0.68057335
     0.32476115     0.72667192     0.68057335
     0.29027840     0.96805123     0.68057335
     0.53165771     0.27839606     0.68057335
     0.49717495     0.51977537     0.68057335
     0.46269219     0.76115468     0.68057335
     0.42820943     1.00253399     0.68057335
     0.66958874     0.31287882     0.68057335
     0.63510598     0.55425813     0.68057335
     0.60062322     0.79563744     0.68057335
     0.56614046     1.03701675     0.68057335
     0.80751978     0.34736157     0.68057335
     0.77303702     0.58874088     0.68057335
     0.73855426     0.83012019     0.68057335
     0.70407150     1.07149950     0.68057335
     0.94545081     0.38184433     0.68057335
     0.91096805     0.62322364     0.68057335
     0.87648529     0.86460295     0.68057335
     0.84200253     1.10598226     0.68057335
    -0.01439775     0.10078426     0.57434529
     0.12353328     0.13526702     0.57434529
     0.08905052     0.37664633     0.57434529
     0.05456777     0.61802564     0.57434529
     0.02008501     0.85940495     0.57434529
     0.26146432     0.16974978     0.57434529
     0.22698156     0.41112909     0.57434529
     0.19249880     0.65250840     0.57434529
     0.15801604     0.89388771     0.57434529
     0.39939535     0.20423254     0.57434529
     0.36491259     0.44561185     0.57434529
     0.33042983     0.68699116     0.57434529
     0.29594708     0.92837047     0.57434529
     0.53732639     0.23871530     0.57434529
     0.50284363     0.48009461     0.57434529
     0.46836087     0.72147392     0.57434529
     0.43387811     0.96285323     0.57434529
     0.67525742     0.27319805     0.57434529
     0.64077466     0.51457736     0.57434529
     0.60629190     0.75595667     0.57434529
     0.57180914     0.99733599     0.57434529
     0.81318846     0.30768081     0.57434529
     0.77870570     0.54906012     0.57434529
     0.74422294     0.79043943     0.57434529
     0.70974018     1.03181874     0.57434529
     0.95111949     0.34216357     0.57434529
     0.91663673     0.58354288     0.57434529
     0.88215397     0.82492219     0.57434529
     0.84767121     1.06630150     0.57434529
     0.06612189     0.03714678     0.57434529
     0.20405292     0.07162953     0.57434529
     0.16957017     0.31300884     0.57434529
     0.13508741     0.55438815     0.57434529
     0.10060465     0.79576746     0.57434529
     0.34198396     0.10611229     0.57434529
     0.30750120     0.34749160     0.57434529
     0.27301844     0.58887091     0.57434529
     0.23853568     0.83025022     0.57434529
     0.47991499     0.14059505     0.57434529
     0.44543223     0.38197436     0.57434529
     0.41094948     0.62335367     0.57434529
     0.37646672     0.86473298     0.57434529
     0.61784603     0.17507781     0.57434529
     0.58336327     0.41645712     0.57434529
     0.54888051     0.65783643     0.57434529
     0.51439775     0.89921574     0.57434529
     0.75577706     0.20956057     0.57434529
     0.72129430     0.45093988     0.57434529
     0.68681154     0.69231919     0.57434529
     0.65232879     0.93369850     0.57434529
     0.89370810     0.24404333     0.57434529
     0.85922534     0.48542264     0.57434529
     0.82474258     0.72680195     0.57434529
     0.79025982     0.96818126     0.57434529
     1.03163913     0.27852609     0.57434529
     0.99715637     0.51990540     0.57434529
     0.96267361     0.76128471     0.57434529
     0.92819085     1.00266402     0.57434529
     0.03730781     0.23884532     0.68057335
     0.17523885     0.27332808     0.68057335
     0.14075609     0.51470739     0.68057335
     0.10627333     0.75608670     0.68057335
     0.07179057     0.99746601     0.68057335
     0.31316988     0.30781084     0.68057335
     0.27868712     0.54919015     0.68057335
     0.24420436     0.79056946     0.68057335
     0.20972160     1.03194877     0.68057335
     0.45110091     0.34229360     0.68057335
     0.41661816     0.58367291     0.68057335
     0.38213540     0.82505222     0.68057335
     0.34765264     1.06643153     0.68057335
     0.58903195     0.37677636     0.68057335
     0.55454919     0.61815567     0.68057335
     0.52006643     0.85953498     0.68057335
     0.48558367     1.10091429     0.68057335
     0.72696298     0.41125912     0.68057335
     0.69248022     0.65263843     0.68057335
     0.65799747     0.89401774     0.68057335
     0.62351471     1.13539705     0.68057335
     0.86489402     0.44574187     0.68057335
     0.83041126     0.68712118     0.68057335
     0.79592850     0.92850050     0.68057335
     0.76144574     1.16987981     0.68057335
     1.00282505     0.48022463     0.68057335
     0.96834229     0.72160394     0.68057335
     0.93385954     0.96298325     0.68057335
     0.89937678     1.20436256     0.68057335
