Generated by Twist2D
    1.0
      92.31598978       0.00000000       0.00000000
       0.00000000      66.45729493       0.00000000
       0.00000000       0.00000000      20.00000000
    P
    3364
Direct
     0.01785714     0.03879510     0.42564718
     0.01785714     0.10546177     0.42564718
     0.01785714     0.17212843     0.42564718
     0.01785714     0.23879510     0.42564718
     0.01785714     0.30546177     0.42564718
     0.01785714     0.37212843     0.42564718
     0.01785714     0.43879510     0.42564718
     0.01785714     0.50546177     0.42564718
     0.01785714     0.57212843     0.42564718
     0.01785714     0.63879510     0.42564718
     0.01785714     0.70546177     0.42564718
     0.01785714     0.77212843     0.42564718
     0.01785714     0.83879510     0.42564718
     0.01785714     0.90546177     0.42564718
     0.01785714     0.97212843     0.42564718
     0.05357143     0.03879510     0.42564718
     0.05357143     0.10546177     0.42564718
     0.05357143     0.17212843     0.42564718
     0.05357143     0.23879510     0.42564718
     0.05357143     0.30546177     0.42564718
     0.05357143     0.37212843     0.42564718
     0.05357143     0.43879510     0.42564718
     0.05357143     0.50546177     0.42564718
     0.05357143     0.57212843     0.42564718
     0.05357143     0.63879510     0.42564718
     0.05357143     0.70546177     0.42564718
     0.05357143     0.77212843     0.42564718
     0.05357143     0.83879510     0.42564718
     0.05357143     0.90546177     0.42564718
     0.05357143     0.97212843     0.42564718
     0.08928571     0.03879510     0.42564718
     0.08928571     0.10546177     0.42564718
     0.08928571     0.17212843     0.42564718
     0.08928571     0.23879510     0.42564718
     0.08928571     0.30546177     0.42564718
     0.08928571     0.37212843     0.42564718
     0.08928571     0.43879510     0.42564718
     0.08928571     0.50546177     0.42564718
     0.08928571     0.57212843     0.42564718
     0.08928571     0.63879510     0.42564718
     0.08928571     0.70546177     0.42564718
     0.08928571     0.77212843     0.42564718
     0.08928571     0.83879510     0.42564718
     0.08928571     0.90546177     0.42564718
     0.08928571     0.97212843     0.42564718
     0.12500000     0.03879510     0.42564718
     0.12500000     0.10546177     0.42564718
     0.12500000     0.17212843     0.42564718
     0.12500000     0.23879510     0.42564718
     0.12500000     0.30546177     0.42564718
     0.12500000     0.37212843     0.42564718
     0.12500000     0.43879510     0.42564718
     0.12500000     0.50546177     0.42564718
     0.12500000     0.57212843     0.42564718
     0.12500000     0.63879510     0.42564718
     0.12500000     0.70546177     0.42564718
     0.12500000     0.77212843     0.42564718
     0.12500000     0.83879510     0.42564718
     0.12500000     0.90546177     0.42564718
     0.12500000     0.97212843     0.42564718
     0.16071429     0.03879510     0.42564718
     0.16071429     0.10546177     0.42564718
     0.16071429     0.17212843     0.42564718
     0.16071429     0.23879510     0.42564718
     0.16071429     0.30546177     0.42564718
     0.16071429     0.37212843     0.42564718
     0.16071429     0.43879510     0.42564718
     0.16071429     0.50546177     0.42564718
     0.16071429     0.57212843     0.42564718
     0.16071429     0.63879510     0.42564718
     0.16071429     0.70546177     0.42564718
     0.16071429     0.77212843     0.42564718
     0.16071429     0.83879510     0.42564718
     0.16071429     0.90546177     0.42564718
     0.16071429     0.97212843     0.42564718
     0.19642857     0.03879510     0.42564718
     0.19642857     0.10546177     0.42564718
     0.19642857     0.17212843     0.42564718
     0.19642857     0.23879510     0.42564718
     0.19642857     0.30546177     0.42564718
     0.19642857     0.37212843     0.42564718
     0.19642857     0.43879510     0.42564718
     0.19642857     0.50546177     0.42564718
     0.19642857     0.57212843     0.42564718
     0.19642857     0.63879510     0.42564718
     0.19642857     0.70546177     0.42564718
     0.19642857     0.77212843     0.42564718
     0.19642857     0.83879510     0.42564718
     0.19642857     0.90546177     0.42564718
     0.19642857     0.97212843     0.42564718
     0.23214286     0.03879510     0.42564718
     0.23214286     0.10546177     0.42564718
     0.23214286     0.17212843     0.42564718
     0.23214286     0.23879510     0.42564718
     0.23214286     0.30546177     0.42564718
     0.23214286     0.37212843     0.42564718
     0.23214286     0.43879510     0.42564718
     0.23214286     0.50546177     0.42564718
     0.23214286     0.57212843     0.42564718
     0.23214286     0.63879510     0.42564718
     0.23214286     0.70546177     0.42564718
     0.23214286     0.77212843     0.42564718
     0.23214286     0.83879510     0.42564718
     0.23214286     0.90546177     0.42564718
     0.23214286     0.97212843     0.42564718
     0.26785714     0.03879510     0.42564718
     0.26785714     0.10546177     0.42564718
     0.26785714     0.17212843     0.42564718
     0.26785714     0.23879510     0.42564718
     0.26785714     0.30546177     0.42564718
     0.26785714     0.37212843     0.42564718
     0.26785714     0.43879510     0.42564718
     0.26785714     0.50546177     0.42564718
     0.26785714     0.57212843     0.42564718
     0.26785714     0.63879510     0.42564718
     0.26785714     0.70546177     0.42564718
     0.26785714     0.77212843     0.42564718
     0.26785714     0.83879510     0.42564718
     0.26785714     0.90546177     0.42564718
     0.26785714     0.97212843     0.42564718
     0.30357143     0.03879510     0.42564718
     0.30357143     0.10546177     0.42564718
     0.30357143     0.17212843     0.42564718
     0.30357143     0.23879510     0.42564718
     0.30357143     0.30546177     0.42564718
     0.30357143     0.37212843     0.42564718
     0.30357143     0.43879510     0.42564718
     0.30357143     0.50546177     0.42564718
     0.30357143     0.57212843     0.42564718
     0.30357143     0.63879510     0.42564718
     0.30357143     0.70546177     0.42564718
     0.30357143     0.77212843     0.42564718
     0.30357143     0.83879510     0.42564718
     0.30357143     0.90546177     0.42564718
     0.30357143     0.97212843     0.42564718
     0.33928571     0.03879510     0.42564718
     0.33928571     0.10546177     0.42564718
     0.33928571     0.17212843     0.42564718
     0.33928571     0.23879510     0.42564718
     0.33928571     0.30546177     0.42564718
     0.33928571     0.37212843     0.42564718
     0.33928571     0.43879510     0.42564718
     0.33928571     0.50546177     0.42564718
     0.33928571     0.57212843     0.42564718
     0.33928571     0.63879510     0.42564718
     0.33928571     0.70546177     0.42564718
     0.33928571     0.77212843     0.42564718
     0.33928571     0.83879510     0.42564718
     0.33928571     0.90546177     0.42564718
     0.33928571     0.97212843     0.42564718
     0.37500000     0.03879510     0.42564718
     0.37500000     0.10546177     0.42564718
     0.37500000     0.17212843     0.42564718
     0.37500000     0.23879510     0.42564718
     0.37500000     0.30546177     0.42564718
     0.37500000     0.37212843     0.42564718
     0.37500000     0.43879510     0.42564718
     0.37500000     0.50546177     0.42564718
     0.37500000     0.57212843     0.42564718
     0.37500000     0.63879510     0.42564718
     0.37500000     0.70546177     0.42564718
     0.37500000     0.77212843     0.42564718
     0.37500000     0.83879510     0.42564718
     0.37500000     0.90546177     0.42564718
     0.37500000     0.97212843     0.42564718
     0.41071429     0.03879510     0.42564718
     0.41071429     0.10546177     0.42564718
     0.41071429     0.17212843     0.42564718
     0.41071429     0.23879510     0.42564718
     0.41071429     0.30546177     0.42564718
     0.41071429     0.37212843     0.42564718
     0.41071429     0.43879510     0.42564718
     0.41071429     0.50546177     0.42564718
     0.41071429     0.57212843     0.42564718
     0.41071429     0.63879510     0.42564718
     0.41071429     0.70546177     0.42564718
     0.41071429     0.77212843     0.42564718
     0.41071429     0.83879510     0.42564718
     0.41071429     0.90546177     0.42564718
     0.41071429     0.97212843     0.42564718
     0.44642857     0.03879510     0.42564718
     0.44642857     0.10546177     0.42564718
     0.44642857     0.17212843     0.42564718
     0.44642857     0.23879510     0.42564718
     0.44642857     0.30546177     0.42564718
     0.44642857     0.37212843     0.42564718
     0.44642857     0.43879510     0.42564718
     0.44642857     0.50546177     0.42564718
     0.44642857     0.57212843     0.42564718
     0.44642857     0.63879510     0.42564718
     0.44642857     0.70546177     0.42564718
     0.44642857     0.77212843     0.42564718
     0.44642857     0.83879510     0.42564718
     0.44642857     0.90546177     0.42564718
     0.44642857     0.97212843     0.42564718
     0.48214286     0.03879510     0.42564718
     0.48214286     0.10546177     0.42564718
     0.48214286     0.17212843     0.42564718
     0.48214286     0.23879510     0.42564718
     0.48214286     0.30546177     0.42564718
     0.48214286     0.37212843     0.42564718
     0.48214286     0.43879510     0.42564718
     0.48214286     0.50546177     0.42564718
     0.48214286     0.57212843     0.42564718
     0.48214286     0.63879510     0.42564718
     0.48214286     0.70546177     0.42564718
     0.48214286     0.77212843     0.42564718
     0.48214286     0.83879510     0.42564718
     0.48214286     0.90546177     0.42564718
     0.48214286     0.97212843     0.42564718
     0.51785714     0.03879510     0.42564718
     0.51785714     0.10546177     0.42564718
     0.51785714     0.17212843     0.42564718
     0.51785714     0.23879510     0.42564718
     0.51785714     0.30546177     0.42564718
     0.51785714     0.37212843     0.42564718
     0.51785714     0.43879510     0.42564718
     0.51785714     0.50546177     0.42564718
     0.51785714     0.57212843     0.42564718
     0.51785714     0.63879510     0.42564718
     0.51785714     0.70546177     0.42564718
     0.51785714     0.77212843     0.42564718
     0.51785714     0.83879510     0.42564718
     0.51785714     0.90546177     0.42564718
     0.51785714     0.97212843     0.42564718
     0.55357143     0.03879510     0.42564718
     0.55357143     0.10546177     0.42564718
     0.55357143     0.17212843     0.42564718
     0.55357143     0.23879510     0.42564718
     0.55357143     0.30546177     0.42564718
     0.55357143     0.37212843     0.42564718
     0.55357143     0.43879510     0.42564718
     0.55357143     0.50546177     0.42564718
     0.55357143     0.57212843     0.42564718
     0.55357143     0.63879510     0.42564718
     0.55357143     0.70546177     0.42564718
     0.55357143     0.77212843     0.42564718
     0.55357143     0.83879510     0.42564718
     0.55357143     0.90546177     0.42564718
     0.55357143     0.97212843     0.42564718
     0.58928571     0.03879510     0.42564718
     0.58928571     0.10546177     0.42564718
     0.58928571     0.17212843     0.42564718
     0.58928571     0.23879510     0.42564718
     0.58928571     0.30546177     0.42564718
     0.58928571     0.37212843     0.42564718
     0.58928571     0.43879510     0.42564718
     0.58928571     0.50546177     0.42564718
     0.58928571     0.57212843     0.42564718
     0.58928571     0.63879510     0.42564718
     0.58928571     0.70546177     0.42564718
     0.58928571     0.77212843     0.42564718
     0.58928571     0.83879510     0.42564718
     0.58928571     0.90546177     0.42564718
     0.58928571     0.97212843     0.42564718
     0.62500000     0.03879510     0.42564718
     0.62500000     0.10546177     0.42564718
     0.62500000     0.17212843     0.42564718
     0.62500000     0.23879510     0.42564718
     0.62500000     0.30546177     0.42564718
     0.62500000     0.37212843     0.42564718
     0.62500000     0.43879510     0.42564718
     0.62500000     0.50546177     0.42564718
     0.62500000     0.57212843     0.42564718
     0.62500000     0.63879510     0.42564718
     0.62500000     0.70546177     0.42564718
     0.62500000     0.77212843     0.42564718
     0.62500000     0.83879510     0.42564718
     0.62500000     0.90546177     0.42564718
     0.62500000     0.97212843     0.42564718
     0.66071429     0.03879510     0.42564718
     0.66071429     0.10546177     0.42564718
     0.66071429     0.17212843     0.42564718
     0.66071429     0.23879510     0.42564718
     0.66071429     0.30546177     0.42564718
     0.66071429     0.37212843     0.42564718
     0.66071429     0.43879510     0.42564718
     0.66071429     0.50546177     0.42564718
     0.66071429     0.57212843     0.42564718
     0.66071429     0.63879510     0.42564718
     0.66071429     0.70546177     0.42564718
     0.66071429     0.77212843     0.42564718
     0.66071429     0.83879510     0.42564718
     0.66071429     0.90546177     0.42564718
     0.66071429     0.97212843     0.42564718
     0.69642857     0.03879510     0.42564718
     0.69642857     0.10546177     0.42564718
     0.69642857     0.17212843     0.42564718
     0.69642857     0.23879510     0.42564718
     0.69642857     0.30546177     0.42564718
     0.69642857     0.37212843     0.42564718
     0.69642857     0.43879510     0.42564718
     0.69642857     0.50546177     0.42564718
     0.69642857     0.57212843     0.42564718
     0.69642857     0.63879510     0.42564718
     0.69642857     0.70546177     0.42564718
     0.69642857     0.77212843     0.42564718
     0.69642857     0.83879510     0.42564718
     0.69642857     0.90546177     0.42564718
     0.69642857     0.97212843     0.42564718
     0.73214286     0.03879510     0.42564718
     0.73214286     0.10546177     0.42564718
     0.73214286     0.17212843     0.42564718
     0.73214286     0.23879510     0.42564718
     0.73214286     0.30546177     0.42564718
     0.73214286     0.37212843     0.42564718
     0.73214286     0.43879510     0.42564718
     0.73214286     0.50546177     0.42564718
     0.73214286     0.57212843     0.42564718
     0.73214286     0.63879510     0.42564718
     0.73214286     0.70546177     0.42564718
     0.73214286     0.77212843     0.42564718
     0.73214286     0.83879510     0.42564718
     0.73214286     0.90546177     0.42564718
     0.73214286     0.97212843     0.42564718
     0.76785714     0.03879510     0.42564718
     0.76785714     0.10546177     0.42564718
     0.76785714     0.17212843     0.42564718
     0.76785714     0.23879510     0.42564718
     0.76785714     0.30546177     0.42564718
     0.76785714     0.37212843     0.42564718
     0.76785714     0.43879510     0.42564718
     0.76785714     0.50546177     0.42564718
     0.76785714     0.57212843     0.42564718
     0.76785714     0.63879510     0.42564718
     0.76785714     0.70546177     0.42564718
     0.76785714     0.77212843     0.42564718
     0.76785714     0.83879510     0.42564718
     0.76785714     0.90546177     0.42564718
     0.76785714     0.97212843     0.42564718
     0.80357143     0.03879510     0.42564718
     0.80357143     0.10546177     0.42564718
     0.80357143     0.17212843     0.42564718
     0.80357143     0.23879510     0.42564718
     0.80357143     0.30546177     0.42564718
     0.80357143     0.37212843     0.42564718
     0.80357143     0.43879510     0.42564718
     0.80357143     0.50546177     0.42564718
     0.80357143     0.57212843     0.42564718
     0.80357143     0.63879510     0.42564718
     0.80357143     0.70546177     0.42564718
     0.80357143     0.77212843     0.42564718
     0.80357143     0.83879510     0.42564718
     0.80357143     0.90546177     0.42564718
     0.80357143     0.97212843     0.42564718
     0.83928571     0.03879510     0.42564718
     0.83928571     0.10546177     0.42564718
     0.83928571     0.17212843     0.42564718
     0.83928571     0.23879510     0.42564718
     0.83928571     0.30546177     0.42564718
     0.83928571     0.37212843     0.42564718
     0.83928571     0.43879510     0.42564718
     0.83928571     0.50546177     0.42564718
     0.83928571     0.57212843     0.42564718
     0.83928571     0.63879510     0.42564718
     0.83928571     0.70546177     0.42564718
     0.83928571     0.77212843     0.42564718
     0.83928571     0.83879510     0.42564718
     0.83928571     0.90546177     0.42564718
     0.83928571     0.97212843     0.42564718
     0.87500000     0.03879510     0.42564718
     0.87500000     0.10546177     0.42564718
     0.87500000     0.17212843     0.42564718
     0.87500000     0.23879510     0.42564718
     0.87500000     0.30546177     0.42564718
     0.87500000     0.37212843     0.42564718
     0.87500000     0.43879510     0.42564718
     0.87500000     0.50546177     0.42564718
     0.87500000     0.57212843     0.42564718
     0.87500000     0.63879510     0.42564718
     0.87500000     0.70546177     0.42564718
     0.87500000     0.77212843     0.42564718
     0.87500000     0.83879510     0.42564718
     0.87500000     0.90546177     0.42564718
     0.87500000     0.97212843     0.42564718
     0.91071429     0.03879510     0.42564718
     0.91071429     0.10546177     0.42564718
     0.91071429     0.17212843     0.42564718
     0.91071429     0.23879510     0.42564718
     0.91071429     0.30546177     0.42564718
     0.91071429     0.37212843     0.42564718
     0.91071429     0.43879510     0.42564718
     0.91071429     0.50546177     0.42564718
     0.91071429     0.57212843     0.42564718
     0.91071429     0.63879510     0.42564718
     0.91071429     0.70546177     0.42564718
     0.91071429     0.77212843     0.42564718
     0.91071429     0.83879510     0.42564718
     0.91071429     0.90546177     0.42564718
     0.91071429     0.97212843     0.42564718
     0.94642857     0.03879510     0.42564718
     0.94642857     0.10546177     0.42564718
     0.94642857     0.17212843     0.42564718
     0.94642857     0.23879510     0.42564718
     0.94642857     0.30546177     0.42564718
     0.94642857     0.37212843     0.42564718
     0.94642857     0.43879510     0.42564718
     0.94642857     0.50546177     0.42564718
     0.94642857     0.57212843     0.42564718
     0.94642857     0.63879510     0.42564718
     0.94642857     0.70546177     0.42564718
     0.94642857     0.77212843     0.42564718
     0.94642857     0.83879510     0.42564718
     0.94642857     0.90546177     0.42564718
     0.94642857     0.97212843     0.42564718
     0.98214286     0.03879510     0.42564718
     0.98214286     0.10546177     0.42564718
     0.98214286     0.17212843     0.42564718
     0.98214286     0.23879510     0.42564718
     0.98214286     0.30546177     0.42564718
     0.98214286     0.37212843     0.42564718
     0.98214286     0.43879510     0.42564718
     0.98214286     0.50546177     0.42564718
     0.98214286     0.57212843     0.42564718
     0.98214286     0.63879510     0.42564718
     0.98214286     0.70546177     0.42564718
     0.98214286     0.77212843     0.42564718
     0.98214286     0.83879510     0.42564718
     0.98214286     0.90546177     0.42564718
     0.98214286     0.97212843     0.42564718
     0.01785714     0.02783565     0.31941913
     0.01785714     0.09450232     0.31941913
     0.01785714     0.16116899     0.31941913
     0.01785714     0.22783565     0.31941913
     0.01785714     0.29450232     0.31941913
     0.01785714     0.36116899     0.31941913
     0.01785714     0.42783565     0.31941913
     0.01785714     0.49450232     0.31941913
     0.01785714     0.56116899     0.31941913
     0.01785714     0.62783565     0.31941913
     0.01785714     0.69450232     0.31941913
     0.01785714     0.76116899     0.31941913
     0.01785714     0.82783565     0.31941913
     0.01785714     0.89450232     0.31941913
     0.01785714     0.96116899     0.31941913
     0.05357143     0.02783565     0.31941913
     0.05357143     0.09450232     0.31941913
     0.05357143     0.16116899     0.31941913
     0.05357143     0.22783565     0.31941913
     0.05357143     0.29450232     0.31941913
     0.05357143     0.36116899     0.31941913
     0.05357143     0.42783565     0.31941913
     0.05357143     0.49450232     0.31941913
     0.05357143     0.56116899     0.31941913
     0.05357143     0.62783565     0.31941913
     0.05357143     0.69450232     0.31941913
     0.05357143     0.76116899     0.31941913
     0.05357143     0.82783565     0.31941913
     0.05357143     0.89450232     0.31941913
     0.05357143     0.96116899     0.31941913
     0.08928571     0.02783565     0.31941913
     0.08928571     0.09450232     0.31941913
     0.08928571     0.16116899     0.31941913
     0.08928571     0.22783565     0.31941913
     0.08928571     0.29450232     0.31941913
     0.08928571     0.36116899     0.31941913
     0.08928571     0.42783565     0.31941913
     0.08928571     0.49450232     0.31941913
     0.08928571     0.56116899     0.31941913
     0.08928571     0.62783565     0.31941913
     0.08928571     0.69450232     0.31941913
     0.08928571     0.76116899     0.31941913
     0.08928571     0.82783565     0.31941913
     0.08928571     0.89450232     0.31941913
     0.08928571     0.96116899     0.31941913
     0.12500000     0.02783565     0.31941913
     0.12500000     0.09450232     0.31941913
     0.12500000     0.16116899     0.31941913
     0.12500000     0.22783565     0.31941913
     0.12500000     0.29450232     0.31941913
     0.12500000     0.36116899     0.31941913
     0.12500000     0.42783565     0.31941913
     0.12500000     0.49450232     0.31941913
     0.12500000     0.56116899     0.31941913
     0.12500000     0.62783565     0.31941913
     0.12500000     0.69450232     0.31941913
     0.12500000     0.76116899     0.31941913
     0.12500000     0.82783565     0.31941913
     0.12500000     0.89450232     0.31941913
     0.12500000     0.96116899     0.31941913
     0.16071429     0.02783565     0.31941913
     0.16071429     0.09450232     0.31941913
     0.16071429     0.16116899     0.31941913
     0.16071429     0.22783565     0.31941913
     0.16071429     0.29450232     0.31941913
     0.16071429     0.36116899     0.31941913
     0.16071429     0.42783565     0.31941913
     0.16071429     0.49450232     0.31941913
     0.16071429     0.56116899     0.31941913
     0.16071429     0.62783565     0.31941913
     0.16071429     0.69450232     0.31941913
     0.16071429     0.76116899     0.31941913
     0.16071429     0.82783565     0.31941913
     0.16071429     0.89450232     0.31941913
     0.16071429     0.96116899     0.31941913
     0.19642857     0.02783565     0.31941913
     0.19642857     0.09450232     0.31941913
     0.19642857     0.16116899     0.31941913
     0.19642857     0.22783565     0.31941913
     0.19642857     0.29450232     0.31941913
     0.19642857     0.36116899     0.31941913
     0.19642857     0.42783565     0.31941913
     0.19642857     0.49450232     0.31941913
     0.19642857     0.56116899     0.31941913
     0.19642857     0.62783565     0.31941913
     0.19642857     0.69450232     0.31941913
     0.19642857     0.76116899     0.31941913
     0.19642857     0.82783565     0.31941913
     0.19642857     0.89450232     0.31941913
     0.19642857     0.96116899     0.31941913
     0.23214286     0.02783565     0.31941913
     0.23214286     0.09450232     0.31941913
     0.23214286     0.16116899     0.31941913
     0.23214286     0.22783565     0.31941913
     0.23214286     0.29450232     0.31941913
     0.23214286     0.36116899     0.31941913
     0.23214286     0.42783565     0.31941913
     0.23214286     0.49450232     0.31941913
     0.23214286     0.56116899     0.31941913
     0.23214286     0.62783565     0.31941913
     0.23214286     0.69450232     0.31941913
     0.23214286     0.76116899     0.31941913
     0.23214286     0.82783565     0.31941913
     0.23214286     0.89450232     0.31941913
     0.23214286     0.96116899     0.31941913
     0.26785714     0.02783565     0.31941913
     0.26785714     0.09450232     0.31941913
     0.26785714     0.16116899     0.31941913
     0.26785714     0.22783565     0.31941913
     0.26785714     0.29450232     0.31941913
     0.26785714     0.36116899     0.31941913
     0.26785714     0.42783565     0.31941913
     0.26785714     0.49450232     0.31941913
     0.26785714     0.56116899     0.31941913
     0.26785714     0.62783565     0.31941913
     0.26785714     0.69450232     0.31941913
     0.26785714     0.76116899     0.31941913
     0.26785714     0.82783565     0.31941913
     0.26785714     0.89450232     0.31941913
     0.26785714     0.96116899     0.31941913
     0.30357143     0.02783565     0.31941913
     0.30357143     0.09450232     0.31941913
     0.30357143     0.16116899     0.31941913
     0.30357143     0.22783565     0.31941913
     0.30357143     0.29450232     0.31941913
     0.30357143     0.36116899     0.31941913
     0.30357143     0.42783565     0.31941913
     0.30357143     0.49450232     0.31941913
     0.30357143     0.56116899     0.31941913
     0.30357143     0.62783565     0.31941913
     0.30357143     0.69450232     0.31941913
     0.30357143     0.76116899     0.31941913
     0.30357143     0.82783565     0.31941913
     0.30357143     0.89450232     0.31941913
     0.30357143     0.96116899     0.31941913
     0.33928571     0.02783565     0.31941913
     0.33928571     0.09450232     0.31941913
     0.33928571     0.16116899     0.31941913
     0.33928571     0.22783565     0.31941913
     0.33928571     0.29450232     0.31941913
     0.33928571     0.36116899     0.31941913
     0.33928571     0.42783565     0.31941913
     0.33928571     0.49450232     0.31941913
     0.33928571     0.56116899     0.31941913
     0.33928571     0.62783565     0.31941913
     0.33928571     0.69450232     0.31941913
     0.33928571     0.76116899     0.31941913
     0.33928571     0.82783565     0.31941913
     0.33928571     0.89450232     0.31941913
     0.33928571     0.96116899     0.31941913
     0.37500000     0.02783565     0.31941913
     0.37500000     0.09450232     0.31941913
     0.37500000     0.16116899     0.31941913
     0.37500000     0.22783565     0.31941913
     0.37500000     0.29450232     0.31941913
     0.37500000     0.36116899     0.31941913
     0.37500000     0.42783565     0.31941913
     0.37500000     0.49450232     0.31941913
     0.37500000     0.56116899     0.31941913
     0.37500000     0.62783565     0.31941913
     0.37500000     0.69450232     0.31941913
     0.37500000     0.76116899     0.31941913
     0.37500000     0.82783565     0.31941913
     0.37500000     0.89450232     0.31941913
     0.37500000     0.96116899     0.31941913
     0.41071429     0.02783565     0.31941913
     0.41071429     0.09450232     0.31941913
     0.41071429     0.16116899     0.31941913
     0.41071429     0.22783565     0.31941913
     0.41071429     0.29450232     0.31941913
     0.41071429     0.36116899     0.31941913
     0.41071429     0.42783565     0.31941913
     0.41071429     0.49450232     0.31941913
     0.41071429     0.56116899     0.31941913
     0.41071429     0.62783565     0.31941913
     0.41071429     0.69450232     0.31941913
     0.41071429     0.76116899     0.31941913
     0.41071429     0.82783565     0.31941913
     0.41071429     0.89450232     0.31941913
     0.41071429     0.96116899     0.31941913
     0.44642857     0.02783565     0.31941913
     0.44642857     0.09450232     0.31941913
     0.44642857     0.16116899     0.31941913
     0.44642857     0.22783565     0.31941913
     0.44642857     0.29450232     0.31941913
     0.44642857     0.36116899     0.31941913
     0.44642857     0.42783565     0.31941913
     0.44642857     0.49450232     0.31941913
     0.44642857     0.56116899     0.31941913
     0.44642857     0.62783565     0.31941913
     0.44642857     0.69450232     0.31941913
     0.44642857     0.76116899     0.31941913
     0.44642857     0.82783565     0.31941913
     0.44642857     0.89450232     0.31941913
     0.44642857     0.96116899     0.31941913
     0.48214286     0.02783565     0.31941913
     0.48214286     0.09450232     0.31941913
     0.48214286     0.16116899     0.31941913
     0.48214286     0.22783565     0.31941913
     0.48214286     0.29450232     0.31941913
     0.48214286     0.36116899     0.31941913
     0.48214286     0.42783565     0.31941913
     0.48214286     0.49450232     0.31941913
     0.48214286     0.56116899     0.31941913
     0.48214286     0.62783565     0.31941913
     0.48214286     0.69450232     0.31941913
     0.48214286     0.76116899     0.31941913
     0.48214286     0.82783565     0.31941913
     0.48214286     0.89450232     0.31941913
     0.48214286     0.96116899     0.31941913
     0.51785714     0.02783565     0.31941913
     0.51785714     0.09450232     0.31941913
     0.51785714     0.16116899     0.31941913
     0.51785714     0.22783565     0.31941913
     0.51785714     0.29450232     0.31941913
     0.51785714     0.36116899     0.31941913
     0.51785714     0.42783565     0.31941913
     0.51785714     0.49450232     0.31941913
     0.51785714     0.56116899     0.31941913
     0.51785714     0.62783565     0.31941913
     0.51785714     0.69450232     0.31941913
     0.51785714     0.76116899     0.31941913
     0.51785714     0.82783565     0.31941913
     0.51785714     0.89450232     0.31941913
     0.51785714     0.96116899     0.31941913
     0.55357143     0.02783565     0.31941913
     0.55357143     0.09450232     0.31941913