Generated by Twist2D
    1.0
     105.50398832       0.00000000       0.00000000
       0.00000000      75.31826759       0.00000000
       0.00000000       0.00000000      20.00000000
    P
    4356
Direct
     0.01562500     0.03423097     0.42564718
     0.01562500     0.09305450     0.42564718
     0.01562500     0.15187803     0.42564718
     0.01562500     0.21070156     0.42564718
     0.01562500     0.26952509     0.42564718
     0.01562500     0.32834862     0.42564718
     0.01562500     0.38717215     0.42564718
     0.01562500     0.44599568     0.42564718
     0.01562500     0.50481921     0.42564718
     0.01562500     0.56364274     0.42564718
     0.01562500     0.62246627     0.42564718
     0.01562500     0.68128980     0.42564718
     0.01562500     0.74011332     0.42564718
     0.01562500     0.79893685     0.42564718
     0.01562500     0.85776038     0.42564718
     0.01562500     0.91658391     0.42564718
     0.01562500     0.97540744     0.42564718
     0.04687500     0.03423097     0.42564718
     0.04687500     0.09305450     0.42564718
     0.04687500     0.15187803     0.42564718
     0.04687500     0.21070156     0.42564718
     0.04687500     0.26952509     0.42564718
     0.04687500     0.32834862     0.42564718
     0.04687500     0.38717215     0.42564718
     0.04687500     0.44599568     0.42564718
     0.04687500     0.50481921     0.42564718
     0.04687500     0.56364274     0.42564718
     0.04687500     0.62246627     0.42564718
     0.04687500     0.68128980     0.42564718
     0.04687500     0.74011332     0.42564718
     0.04687500     0.79893685     0.42564718
     0.04687500     0.85776038     0.42564718
     0.04687500     0.91658391     0.42564718
     0.04687500     0.97540744     0.42564718
     0.07812500     0.03423097     0.42564718
     0.07812500     0.09305450     0.42564718
     0.07812500     0.15187803     0.42564718
     0.07812500     0.21070156     0.42564718
     0.07812500     0.26952509     0.42564718
     0.07812500     0.32834862     0.42564718
     0.07812500     0.38717215     0.42564718
     0.07812500     0.44599568     0.42564718
     0.07812500     0.50481921     0.42564718
     0.07812500     0.56364274     0.42564718
     0.07812500     0.62246627     0.42564718
     0.07812500     0.68128980     0.42564718
     0.07812500     0.74011332     0.42564718
     0.07812500     0.79893685     0.42564718
     0.07812500     0.85776038     0.42564718
     0.07812500     0.91658391     0.42564718
     0.07812500     0.97540744     0.42564718
     0.10937500     0.03423097     0.42564718
     0.10937500     0.09305450     0.42564718
     0.10937500     0.15187803     0.42564718
     0.10937500     0.21070156     0.42564718
     0.10937500     0.26952509     0.42564718
     0.10937500     0.32834862     0.42564718
     0.10937500     0.38717215     0.42564718
     0.10937500     0.44599568     0.42564718
     0.10937500     0.50481921     0.42564718
     0.10937500     0.56364274     0.42564718
     0.10937500     0.62246627     0.42564718
     0.10937500     0.68128980     0.42564718
     0.10937500     0.74011332     0.42564718
     0.10937500     0.79893685     0.42564718
     0.10937500     0.85776038     0.42564718
     0.10937500     0.91658391     0.42564718
     0.10937500     0.97540744     0.42564718
     0.14062500     0.03423097     0.42564718
     0.14062500     0.09305450     0.42564718
     0.14062500     0.15187803     0.42564718
     0.14062500     0.21070156     0.42564718
     0.14062500     0.26952509     0.42564718
     0.14062500     0.32834862     0.42564718
     0.14062500     0.38717215     0.42564718
     0.14062500     0.44599568     0.42564718
     0.14062500     0.50481921     0.42564718
     0.14062500     0.56364274     0.42564718
     0.14062500     0.62246627     0.42564718
     0.14062500     0.68128980     0.42564718
     0.14062500     0.74011332     0.42564718
     0.14062500     0.79893685     0.42564718
     0.14062500     0.85776038     0.42564718
     0.14062500     0.91658391     0.42564718
     0.14062500     0.97540744     0.42564718
     0.17187500     0.03423097     0.42564718
     0.17187500     0.09305450     0.42564718
     0.17187500     0.15187803     0.42564718
     0.17187500     0.21070156     0.42564718
     0.17187500     0.26952509     0.42564718
     0.17187500     0.32834862     0.42564718
     0.17187500     0.38717215     0.42564718
     0.17187500     0.44599568     0.42564718
     0.17187500     0.50481921     0.42564718
     0.17187500     0.56364274     0.42564718
     0.17187500     0.62246627     0.42564718
     0.17187500     0.68128980     0.42564718
     0.17187500     0.74011332     0.42564718
     0.17187500     0.79893685     0.42564718
     0.17187500     0.85776038     0.42564718
     0.17187500     0.91658391     0.42564718
     0.17187500     0.97540744     0.42564718
     0.20312500     0.03423097     0.42564718
     0.20312500     0.09305450     0.42564718
     0.20312500     0.15187803     0.42564718
     0.20312500     0.21070156     0.42564718
     0.20312500     0.26952509     0.42564718
     0.20312500     0.32834862     0.42564718
     0.20312500     0.38717215     0.42564718
     0.20312500     0.44599568     0.42564718
     0.20312500     0.50481921     0.42564718
     0.20312500     0.56364274     0.42564718
     0.20312500     0.62246627     0.42564718
     0.20312500     0.68128980     0.42564718
     0.20312500     0.74011332     0.42564718
     0.20312500     0.79893685     0.42564718
     0.20312500     0.85776038     0.42564718
     0.20312500     0.91658391     0.42564718
     0.20312500     0.97540744     0.42564718
     0.23437500     0.03423097     0.42564718
     0.23437500     0.09305450     0.42564718
     0.23437500     0.15187803     0.42564718
     0.23437500     0.21070156     0.42564718
     0.23437500     0.26952509     0.42564718
     0.23437500     0.32834862     0.42564718
     0.23437500     0.38717215     0.42564718
     0.23437500     0.44599568     0.42564718
     0.23437500     0.50481921     0.42564718
     0.23437500     0.56364274     0.42564718
     0.23437500     0.62246627     0.42564718
     0.23437500     0.68128980     0.42564718
     0.23437500     0.74011332     0.42564718
     0.23437500     0.79893685     0.42564718
     0.23437500     0.85776038     0.42564718
     0.23437500     0.91658391     0.42564718
     0.23437500     0.97540744     0.42564718
     0.26562500     0.03423097     0.42564718
     0.26562500     0.09305450     0.42564718
     0.26562500     0.15187803     0.42564718
     0.26562500     0.21070156     0.42564718
     0.26562500     0.26952509     0.42564718
     0.26562500     0.32834862     0.42564718
     0.26562500     0.38717215     0.42564718
     0.26562500     0.44599568     0.42564718
     0.26562500     0.50481921     0.42564718
     0.26562500     0.56364274     0.42564718
     0.26562500     0.62246627     0.42564718
     0.26562500     0.68128980     0.42564718
     0.26562500     0.74011332     0.42564718
     0.26562500     0.79893685     0.42564718
     0.26562500     0.85776038     0.42564718
     0.26562500     0.91658391     0.42564718
     0.26562500     0.97540744     0.42564718
     0.29687500     0.03423097     0.42564718
     0.29687500     0.09305450     0.42564718
     0.29687500     0.15187803     0.42564718
     0.29687500     0.21070156     0.42564718
     0.29687500     0.26952509     0.42564718
     0.29687500     0.32834862     0.42564718
     0.29687500     0.38717215     0.42564718
     0.29687500     0.44599568     0.42564718
     0.29687500     0.50481921     0.42564718
     0.29687500     0.56364274     0.42564718
     0.29687500     0.62246627     0.42564718
     0.29687500     0.68128980     0.42564718
     0.29687500     0.74011332     0.42564718
     0.29687500     0.79893685     0.42564718
     0.29687500     0.85776038     0.42564718
     0.29687500     0.91658391     0.42564718
     0.29687500     0.97540744     0.42564718
     0.32812500     0.03423097     0.42564718
     0.32812500     0.09305450     0.42564718
     0.32812500     0.15187803     0.42564718
     0.32812500     0.21070156     0.42564718
     0.32812500     0.26952509     0.42564718
     0.32812500     0.32834862     0.42564718
     0.32812500     0.38717215     0.42564718
     0.32812500     0.44599568     0.42564718
     0.32812500     0.50481921     0.42564718
     0.32812500     0.56364274     0.42564718
     0.32812500     0.62246627     0.42564718
     0.32812500     0.68128980     0.42564718
     0.32812500     0.74011332     0.42564718
     0.32812500     0.79893685     0.42564718
     0.32812500     0.85776038     0.42564718
     0.32812500     0.91658391     0.42564718
     0.32812500     0.97540744     0.42564718
     0.35937500     0.03423097     0.42564718
     0.35937500     0.09305450     0.42564718
     0.35937500     0.15187803     0.42564718
     0.35937500     0.21070156     0.42564718
     0.35937500     0.26952509     0.42564718
     0.35937500     0.32834862     0.42564718
     0.35937500     0.38717215     0.42564718
     0.35937500     0.44599568     0.42564718
     0.35937500     0.50481921     0.42564718
     0.35937500     0.56364274     0.42564718
     0.35937500     0.62246627     0.42564718
     0.35937500     0.68128980     0.42564718
     0.35937500     0.74011332     0.42564718
     0.35937500     0.79893685     0.42564718
     0.35937500     0.85776038     0.42564718
     0.35937500     0.91658391     0.42564718
     0.35937500     0.97540744     0.42564718
     0.39062500     0.03423097     0.42564718
     0.39062500     0.09305450     0.42564718
     0.39062500     0.15187803     0.42564718
     0.39062500     0.21070156     0.42564718
     0.39062500     0.26952509     0.42564718
     0.39062500     0.32834862     0.42564718
     0.39062500     0.38717215     0.42564718
     0.39062500     0.44599568     0.42564718
     0.39062500     0.50481921     0.42564718
     0.39062500     0.56364274     0.42564718
     0.39062500     0.62246627     0.42564718
     0.39062500     0.68128980     0.42564718
     0.39062500     0.74011332     0.42564718
     0.39062500     0.79893685     0.42564718
     0.39062500     0.85776038     0.42564718
     0.39062500     0.91658391     0.42564718
     0.39062500     0.97540744     0.42564718
     0.42187500     0.03423097     0.42564718
     0.42187500     0.09305450     0.42564718
     0.42187500     0.15187803     0.42564718
     0.42187500     0.21070156     0.42564718
     0.42187500     0.26952509     0.42564718
     0.42187500     0.32834862     0.42564718
     0.42187500     0.38717215     0.42564718
     0.42187500     0.44599568     0.42564718
     0.42187500     0.50481921     0.42564718
     0.42187500     0.56364274     0.42564718
     0.42187500     0.62246627     0.42564718
     0.42187500     0.68128980     0.42564718
     0.42187500     0.74011332     0.42564718
     0.42187500     0.79893685     0.42564718
     0.42187500     0.85776038     0.42564718
     0.42187500     0.91658391     0.42564718
     0.42187500     0.97540744     0.42564718
     0.45312500     0.03423097     0.42564718
     0.45312500     0.09305450     0.42564718
     0.45312500     0.15187803     0.42564718
     0.45312500     0.21070156     0.42564718
     0.45312500     0.26952509     0.42564718
     0.45312500     0.32834862     0.42564718
     0.45312500     0.38717215     0.42564718
     0.45312500     0.44599568     0.42564718
     0.45312500     0.50481921     0.42564718
     0.45312500     0.56364274     0.42564718
     0.45312500     0.62246627     0.42564718
     0.45312500     0.68128980     0.42564718
     0.45312500     0.74011332     0.42564718
     0.45312500     0.79893685     0.42564718
     0.45312500     0.85776038     0.42564718
     0.45312500     0.91658391     0.42564718
     0.45312500     0.97540744     0.42564718
     0.48437500     0.03423097     0.42564718
     0.48437500     0.09305450     0.42564718
     0.48437500     0.15187803     0.42564718
     0.48437500     0.21070156     0.42564718
     0.48437500     0.26952509     0.42564718
     0.48437500     0.32834862     0.42564718
     0.48437500     0.38717215     0.42564718
     0.48437500     0.44599568     0.42564718
     0.48437500     0.50481921     0.42564718
     0.48437500     0.56364274     0.42564718
     0.48437500     0.62246627     0.42564718
     0.48437500     0.68128980     0.42564718
     0.48437500     0.74011332     0.42564718
     0.48437500     0.79893685     0.42564718
     0.48437500     0.85776038     0.42564718
     0.48437500     0.91658391     0.42564718
     0.48437500     0.97540744     0.42564718
     0.51562500     0.03423097     0.42564718
     0.51562500     0.09305450     0.42564718
     0.51562500     0.15187803     0.42564718
     0.51562500     0.21070156     0.42564718
     0.51562500     0.26952509     0.42564718
     0.51562500     0.32834862     0.42564718
     0.51562500     0.38717215     0.42564718
     0.51562500     0.44599568     0.42564718
     0.51562500     0.50481921     0.42564718
     0.51562500     0.56364274     0.42564718
     0.51562500     0.62246627     0.42564718
     0.51562500     0.68128980     0.42564718
     0.51562500     0.74011332     0.42564718
     0.51562500     0.79893685     0.42564718
     0.51562500     0.85776038     0.42564718
     0.51562500     0.91658391     0.42564718
     0.51562500     0.97540744     0.42564718
     0.54687500     0.03423097     0.42564718
     0.54687500     0.09305450     0.42564718
     0.54687500     0.15187803     0.42564718
     0.54687500     0.21070156     0.42564718
     0.54687500     0.26952509     0.42564718
     0.54687500     0.32834862     0.42564718
     0.54687500     0.38717215     0.42564718
     0.54687500     0.44599568     0.42564718
     0.54687500     0.50481921     0.42564718
     0.54687500     0.56364274     0.42564718
     0.54687500     0.62246627     0.42564718
     0.54687500     0.68128980     0.42564718
     0.54687500     0.74011332     0.42564718
     0.54687500     0.79893685     0.42564718
     0.54687500     0.85776038     0.42564718
     0.54687500     0.91658391     0.42564718
     0.54687500     0.97540744     0.42564718
     0.57812500     0.03423097     0.42564718
     0.57812500     0.09305450     0.42564718
     0.57812500     0.15187803     0.42564718
     0.57812500     0.21070156     0.42564718
     0.57812500     0.26952509     0.42564718
     0.57812500     0.32834862     0.42564718
     0.57812500     0.38717215     0.42564718
     0.57812500     0.44599568     0.42564718
     0.57812500     0.50481921     0.42564718
     0.57812500     0.56364274     0.42564718
     0.57812500     0.62246627     0.42564718
     0.57812500     0.68128980     0.42564718
     0.57812500     0.74011332     0.42564718
     0.57812500     0.79893685     0.42564718
     0.57812500     0.85776038     0.42564718
     0.57812500     0.91658391     0.42564718
     0.57812500     0.97540744     0.42564718
     0.60937500     0.03423097     0.42564718
     0.60937500     0.09305450     0.42564718
     0.60937500     0.15187803     0.42564718
     0.60937500     0.21070156     0.42564718
     0.60937500     0.26952509     0.42564718
     0.60937500     0.32834862     0.42564718
     0.60937500     0.38717215     0.42564718
     0.60937500     0.44599568     0.42564718
     0.60937500     0.50481921     0.42564718
     0.60937500     0.56364274     0.42564718
     0.60937500     0.62246627     0.42564718
     0.60937500     0.68128980     0.42564718
     0.60937500     0.74011332     0.42564718
     0.60937500     0.79893685     0.42564718
     0.60937500     0.85776038     0.42564718
     0.60937500     0.91658391     0.42564718
     0.60937500     0.97540744     0.42564718
     0.64062500     0.03423097     0.42564718
     0.64062500     0.09305450     0.42564718
     0.64062500     0.15187803     0.42564718
     0.64062500     0.21070156     0.42564718
     0.64062500     0.26952509     0.42564718
     0.64062500     0.32834862     0.42564718
     0.64062500     0.38717215     0.42564718
     0.64062500     0.44599568     0.42564718
     0.64062500     0.50481921     0.42564718
     0.64062500     0.56364274     0.42564718
     0.64062500     0.62246627     0.42564718
     0.64062500     0.68128980     0.42564718
     0.64062500     0.74011332     0.42564718
     0.64062500     0.79893685     0.42564718
     0.64062500     0.85776038     0.42564718
     0.64062500     0.91658391     0.42564718
     0.64062500     0.97540744     0.42564718
     0.67187500     0.03423097     0.42564718
     0.67187500     0.09305450     0.42564718
     0.67187500     0.15187803     0.42564718
     0.67187500     0.21070156     0.42564718
     0.67187500     0.26952509     0.42564718
     0.67187500     0.32834862     0.42564718
     0.67187500     0.38717215     0.42564718
     0.67187500     0.44599568     0.42564718
     0.67187500     0.50481921     0.42564718
     0.67187500     0.56364274     0.42564718
     0.67187500     0.62246627     0.42564718
     0.67187500     0.68128980     0.42564718
     0.67187500     0.74011332     0.42564718
     0.67187500     0.79893685     0.42564718
     0.67187500     0.85776038     0.42564718
     0.67187500     0.91658391     0.42564718
     0.67187500     0.97540744     0.42564718
     0.70312500     0.03423097     0.42564718
     0.70312500     0.09305450     0.42564718
     0.70312500     0.15187803     0.42564718
     0.70312500     0.21070156     0.42564718
     0.70312500     0.26952509     0.42564718
     0.70312500     0.32834862     0.42564718
     0.70312500     0.38717215     0.42564718
     0.70312500     0.44599568     0.42564718
     0.70312500     0.50481921     0.42564718
     0.70312500     0.56364274     0.42564718
     0.70312500     0.62246627     0.42564718
     0.70312500     0.68128980     0.42564718
     0.70312500     0.74011332     0.42564718
     0.70312500     0.79893685     0.42564718
     0.70312500     0.85776038     0.42564718
     0.70312500     0.91658391     0.42564718
     0.70312500     0.97540744     0.42564718
     0.73437500     0.03423097     0.42564718
     0.73437500     0.09305450     0.42564718
     0.73437500     0.15187803     0.42564718
     0.73437500     0.21070156     0.42564718
     0.73437500     0.26952509     0.42564718
     0.73437500     0.32834862     0.42564718
     0.73437500     0.38717215     0.42564718
     0.73437500     0.44599568     0.42564718
     0.73437500     0.50481921     0.42564718
     0.73437500     0.56364274     0.42564718
     0.73437500     0.62246627     0.42564718
     0.73437500     0.68128980     0.42564718
     0.73437500     0.74011332     0.42564718
     0.73437500     0.79893685     0.42564718
     0.73437500     0.85776038     0.42564718
     0.73437500     0.91658391     0.42564718
     0.73437500     0.97540744     0.42564718
     0.76562500     0.03423097     0.42564718
     0.76562500     0.09305450     0.42564718
     0.76562500     0.15187803     0.42564718
     0.76562500     0.21070156     0.42564718
     0.76562500     0.26952509     0.42564718
     0.76562500     0.32834862     0.42564718
     0.76562500     0.38717215     0.42564718
     0.76562500     0.44599568     0.42564718
     0.76562500     0.50481921     0.42564718
     0.76562500     0.56364274     0.42564718
     0.76562500     0.62246627     0.42564718
     0.76562500     0.68128980     0.42564718
     0.76562500     0.74011332     0.42564718
     0.76562500     0.79893685     0.42564718
     0.76562500     0.85776038     0.42564718
     0.76562500     0.91658391     0.42564718
     0.76562500     0.97540744     0.42564718
     0.79687500     0.03423097     0.42564718
     0.79687500     0.09305450     0.42564718
     0.79687500     0.15187803     0.42564718
     0.79687500     0.21070156     0.42564718
     0.79687500     0.26952509     0.42564718
     0.79687500     0.32834862     0.42564718
     0.79687500     0.38717215     0.42564718
     0.79687500     0.44599568     0.42564718
     0.79687500     0.50481921     0.42564718
     0.79687500     0.56364274     0.42564718
     0.79687500     0.62246627     0.42564718
     0.79687500     0.68128980     0.42564718
     0.79687500     0.74011332     0.42564718
     0.79687500     0.79893685     0.42564718
     0.79687500     0.85776038     0.42564718
     0.79687500     0.91658391     0.42564718
     0.79687500     0.97540744     0.42564718
     0.82812500     0.03423097     0.42564718
     0.82812500     0.09305450     0.42564718
     0.82812500     0.15187803     0.42564718
     0.82812500     0.21070156     0.42564718
     0.82812500     0.26952509     0.42564718
     0.82812500     0.32834862     0.42564718
     0.82812500     0.38717215     0.42564718
     0.82812500     0.44599568     0.42564718
     0.82812500     0.50481921     0.42564718
     0.82812500     0.56364274     0.42564718
     0.82812500     0.62246627     0.42564718
     0.82812500     0.68128980     0.42564718
     0.82812500     0.74011332     0.42564718
     0.82812500     0.79893685     0.42564718
     0.82812500     0.85776038     0.42564718
     0.82812500     0.91658391     0.42564718
     0.82812500     0.97540744     0.42564718
     0.85937500     0.03423097     0.42564718
     0.85937500     0.09305450     0.42564718
     0.85937500     0.15187803     0.42564718
     0.85937500     0.21070156     0.42564718
     0.85937500     0.26952509     0.42564718
     0.85937500     0.32834862     0.42564718
     0.85937500     0.38717215     0.42564718
     0.85937500     0.44599568     0.42564718
     0.85937500     0.50481921     0.42564718
     0.85937500     0.56364274     0.42564718
     0.85937500     0.62246627     0.42564718
     0.85937500     0.68128980     0.42564718
     0.85937500     0.74011332     0.42564718
     0.85937500     0.79893685     0.42564718
     0.85937500     0.85776038     0.42564718
     0.85937500     0.91658391     0.42564718
     0.85937500     0.97540744     0.42564718
     0.89062500     0.03423097     0.42564718
     0.89062500     0.09305450     0.42564718
     0.89062500     0.15187803     0.42564718
     0.89062500     0.21070156     0.42564718
     0.89062500     0.26952509     0.42564718
     0.89062500     0.32834862     0.42564718
     0.89062500     0.38717215     0.42564718
     0.89062500     0.44599568     0.42564718
     0.89062500     0.50481921     0.42564718
     0.89062500     0.56364274     0.42564718
     0.89062500     0.62246627     0.42564718
     0.89062500     0.68128980     0.42564718
     0.89062500     0.74011332     0.42564718
     0.89062500     0.79893685     0.42564718
     0.89062500     0.85776038     0.42564718
     0.89062500     0.91658391     0.42564718
     0.89062500     0.97540744     0.42564718
     0.92187500     0.03423097     0.42564718
     0.92187500     0.09305450     0.42564718
     0.92187500     0.15187803     0.42564718
     0.92187500     0.21070156     0.42564718
     0.92187500     0.26952509     0.42564718
     0.92187500     0.32834862     0.42564718
     0.92187500     0.38717215     0.42564718
     0.92187500     0.44599568     0.42564718
     0.92187500     0.50481921     0.42564718
     0.92187500     0.56364274     0.42564718
     0.92187500     0.62246627     0.42564718
     0.92187500     0.68128980     0.42564718
     0.92187500     0.74011332     0.42564718
     0.92187500     0.79893685     0.42564718
     0.92187500     0.85776038     0.42564718
     0.92187500     0.91658391     0.42564718
     0.92187500     0.97540744     0.42564718
     0.95312500     0.03423097     0.42564718
     0.95312500     0.09305450     0.42564718
     0.95312500     0.15187803     0.42564718
     0.95312500     0.21070156     0.42564718
     0.95312500     0.26952509     0.42564718
     0.95312500     0.32834862     0.42564718
     0.95312500     0.38717215     0.42564718
     0.95312500     0.44599568     0.42564718
     0.95312500     0.50481921     0.42564718
     0.95312500     0.56364274     0.42564718
     0.95312500     0.62246627     0.42564718
     0.95312500     0.68128980     0.42564718
     0.95312500     0.74011332     0.42564718
     0.95312500     0.79893685     0.42564718
     0.95312500     0.85776038     0.42564718
     0.95312500     0.91658391     0.42564718
     0.95312500     0.97540744     0.42564718
     0.98437500     0.03423097     0.42564718
     0.98437500     0.09305450     0.42564718
     0.98437500     0.15187803     0.42564718
     0.98437500     0.21070156     0.42564718
     0.98437500     0.26952509     0.42564718
     0.98437500     0.32834862     0.42564718
     0.98437500     0.38717215     0.42564718
     0.98437500     0.44599568     0.42564718
     0.98437500     0.50481921     0.42564718
     0.98437500     0.56364274     0.42564718
     0.98437500     0.62246627     0.42564718
     0.98437500     0.68128980     0.42564718
     0.98437500     0.74011332     0.42564718
     0.98437500     0.79893685     0.42564718
     0.98437500     0.85776038     0.42564718
     0.98437500     0.91658391     0.42564718
     0.98437500     0.97540744     0.42564718
     0.01562500     0.02456087     0.31941913
     0.01562500     0.08338440     0.31941913
     0.01562500     0.14220793     0.31941913
     0.01562500     0.20103146     0.31941913
     0.01562500     0.25985499     0.31941913
     0.01562500     0.31867852     0.31941913
     0.01562500     0.37750205     0.31941913
     0.01562500     0.43632558     0.31941913
     0.01562500     0.49514911     0.31941913
     0.01562500     0.55397264     0.31941913
     0.01562500     0.61279616     0.31941913
     0.01562500     0.67161969     0.31941913
     0.01562500     0.73044322     0.31941913
     0.01562500     0.78926675     0.31941913
     0.01562500     0.84809028     0.31941913
     0.01562500     0.90691381     0.31941913
     0.01562500     0.96573734     0.31941913
     0.04687500     0.02456087     0.31941913
     0.04687500     0.08338440     0.31941913
     0.04687500     0.14220793     0.31941913
     0.04687500     0.20103146     0.31941913
     0.04687500     0.25985499     0.31941913
     0.04687500     0.31867852     0.31941913
     0.04687500     0.37750205     0.31941913
     0.04687500     0.43632558     0.31941913
     0.04687500     0.49514911     0.31941913
     0.04687500     0.55397264     0.31941913
     0.04687500     0.61279616     0.31941913
     0.04687500     0.67161969     0.31941913
     0.04687500     0.73044322     0.31941913
     0.04687500     0.78926675     0.31941913
     0.04687500     0.84809028     0.31941913
     0.04687500     0.90691381     0.31941913
     0.04687500     0.96573734     0.31941913
     0.07812500     0.02456087     0.31941913
     0.07812500     0.08338440     0.31941913
     0.07812500     0.14220793     0.31941913
     0.07812500     0.20103146     0.31941913
     0.07812500     0.25985499     0.31941913
     0.07812500     0.31867852     0.31941913
     0.07812500     0.37750205     0.31941913
     0.07812500     0.43632558     0.31941913
     0.07812500     0.49514911     0.31941913
     0.07812500     0.55397264     0.31941913
     0.07812500     0.61279616     0.31941913
     0.07812500     0.67161969     0.31941913
     0.07812500     0.73044322     0.31941913
     0.07812500     0.78926675     0.31941913
     0.07812500     0.84809028     0.31941913
     0.07812500     0.90691381     0.31941913
     0.07812500     0.96573734     0.31941913
     0.10937500     0.02456087     0.31941913
     0.10937500     0.08338440     0.31941913
     0.10937500     0.14220793     0.31941913
     0.10937500     0.20103146     0.31941913
     0.10937500     0.25985499     0.31941913
     0.10937500     0.31867852     0.31941913
     0.10937500     0.37750205     0.31941913
     0.10937500     0.43632558     0.31941913
     0.10937500     0.49514911     0.31941913
     0.10937500     0.55397264     0.31941913
     0.10937500     0.61279616     0.31941913
     0.10937500     0.67161969     0.31941913
     0.10937500     0.73044322     0.31941913
     0.10937500     0.78926675     0.31941913
     0.10937500     0.84809028     0.31941913
     0.10937500     0.90691381     0.31941913
     0.10937500     0.96573734     0.31941913
     0.14062500     0.02456087     0.31941913
     0.14062500     0.08338440     0.31941913
     0.14062500     0.14220793     0.31941913
     0.14062500     0.20103146     0.31941913
     0.14062500     0.25985499     0.31941913
     0.14062500     0.31867852     0.31941913
     0.14062500     0.37750205     0.31941913
     0.14062500     0.43632558     0.31941913
     0.14062500     0.49514911     0.31941913
     0.14062500     0.55397264     0.31941913
     0.14062500     0.61279616     0.31941913
     0.14062500     0.67161969     0.31941913
     0.14062500     0.73044322     0.31941913
     0.14062500     0.78926675     0.31941913
     0.14062500     0.84809028     0.31941913
     0.14062500     0.90691381     0.31941913
     0.14062500     0.96573734     0.31941913
     0.17187500     0.02456087     0.31941913
     0.17187500     0.08338440     0.31941913
     0.17187500     0.14220793     0.31941913
     0.17187500     0.20103146     0.31941913
     0.17187500     0.25985499     0.31941913
     0.17187500     0.31867852     0.31941913
     0.17187500     0.37750205     0.31941913
     0.17187500     0.43632558     0.31941913
     0.17187500     0.49514911     0.31941913
     0.17187500     0.55397264     0.31941913
     0.17187500     0.61279616     0.31941913
     0.17187500     0.67161969     0.31941913
     0.17187500     0.73044322     0.31941913
     0.17187500     0.78926675     0.31941913
     0.17187500     0.84809028     0.31941913
     0.17187500     0.90691381     0.31941913
     0.17187500     0.96573734     0.31941913
     0.20312500     0.02456087     0.31941913