Generated by Twist2D
    1.0
     102.20698868       0.00000000       0.00000000
       0.00000000      75.31826759       0.00000000
       0.00000000       0.00000000      20.00000000
    P
    4220
Direct
     0.01612903     0.03423097     0.42564718
     0.01612903     0.09305450     0.42564718
     0.01612903     0.15187803     0.42564718
     0.01612903     0.21070156     0.42564718
     0.01612903     0.26952509     0.42564718
     0.01612903     0.32834862     0.42564718
     0.01612903     0.38717215     0.42564718
     0.01612903     0.44599568     0.42564718
     0.01612903     0.50481921     0.42564718
     0.01612903     0.56364274     0.42564718
     0.01612903     0.62246627     0.42564718
     0.01612903     0.68128980     0.42564718
     0.01612903     0.74011332     0.42564718
     0.01612903     0.79893685     0.42564718
     0.01612903     0.85776038     0.42564718
     0.01612903     0.91658391     0.42564718
     0.01612903     0.97540744     0.42564718
     0.04838710     0.03423097     0.42564718
     0.04838710     0.09305450     0.42564718
     0.04838710     0.15187803     0.42564718
     0.04838710     0.21070156     0.42564718
     0.04838710     0.26952509     0.42564718
     0.04838710     0.32834862     0.42564718
     0.04838710     0.38717215     0.42564718
     0.04838710     0.44599568     0.42564718
     0.04838710     0.50481921     0.42564718
     0.04838710     0.56364274     0.42564718
     0.04838710     0.62246627     0.42564718
     0.04838710     0.68128980     0.42564718
     0.04838710     0.74011332     0.42564718
     0.04838710     0.79893685     0.42564718
     0.04838710     0.85776038     0.42564718
     0.04838710     0.91658391     0.42564718
     0.04838710     0.97540744     0.42564718
     0.08064516     0.03423097     0.42564718
     0.08064516     0.09305450     0.42564718
     0.08064516     0.15187803     0.42564718
     0.08064516     0.21070156     0.42564718
     0.08064516     0.26952509     0.42564718
     0.08064516     0.32834862     0.42564718
     0.08064516     0.38717215     0.42564718
     0.08064516     0.44599568     0.42564718
     0.08064516     0.50481921     0.42564718
     0.08064516     0.56364274     0.42564718
     0.08064516     0.62246627     0.42564718
     0.08064516     0.68128980     0.42564718
     0.08064516     0.74011332     0.42564718
     0.08064516     0.79893685     0.42564718
     0.08064516     0.85776038     0.42564718
     0.08064516     0.91658391     0.42564718
     0.08064516     0.97540744     0.42564718
     0.11290323     0.03423097     0.42564718
     0.11290323     0.09305450     0.42564718
     0.11290323     0.15187803     0.42564718
     0.11290323     0.21070156     0.42564718
     0.11290323     0.26952509     0.42564718
     0.11290323     0.32834862     0.42564718
     0.11290323     0.38717215     0.42564718
     0.11290323     0.44599568     0.42564718
     0.11290323     0.50481921     0.42564718
     0.11290323     0.56364274     0.42564718
     0.11290323     0.62246627     0.42564718
     0.11290323     0.68128980     0.42564718
     0.11290323     0.74011332     0.42564718
     0.11290323     0.79893685     0.42564718
     0.11290323     0.85776038     0.42564718
     0.11290323     0.91658391     0.42564718
     0.11290323     0.97540744     0.42564718
     0.14516129     0.03423097     0.42564718
     0.14516129     0.09305450     0.42564718
     0.14516129     0.15187803     0.42564718
     0.14516129     0.21070156     0.42564718
     0.14516129     0.26952509     0.42564718
     0.14516129     0.32834862     0.42564718
     0.14516129     0.38717215     0.42564718
     0.14516129     0.44599568     0.42564718
     0.14516129     0.50481921     0.42564718
     0.14516129     0.56364274     0.42564718
     0.14516129     0.62246627     0.42564718
     0.14516129     0.68128980     0.42564718
     0.14516129     0.74011332     0.42564718
     0.14516129     0.79893685     0.42564718
     0.14516129     0.85776038     0.42564718
     0.14516129     0.91658391     0.42564718
     0.14516129     0.97540744     0.42564718
     0.17741935     0.03423097     0.42564718
     0.17741935     0.09305450     0.42564718
     0.17741935     0.15187803     0.42564718
     0.17741935     0.21070156     0.42564718
     0.17741935     0.26952509     0.42564718
     0.17741935     0.32834862     0.42564718
     0.17741935     0.38717215     0.42564718
     0.17741935     0.44599568     0.42564718
     0.17741935     0.50481921     0.42564718
     0.17741935     0.56364274     0.42564718
     0.17741935     0.62246627     0.42564718
     0.17741935     0.68128980     0.42564718
     0.17741935     0.74011332     0.42564718
     0.17741935     0.79893685     0.42564718
     0.17741935     0.85776038     0.42564718
     0.17741935     0.91658391     0.42564718
     0.17741935     0.97540744     0.42564718
     0.20967742     0.03423097     0.42564718
     0.20967742     0.09305450     0.42564718
     0.20967742     0.15187803     0.42564718
     0.20967742     0.21070156     0.42564718
     0.20967742     0.26952509     0.42564718
     0.20967742     0.32834862     0.42564718
     0.20967742     0.38717215     0.42564718
     0.20967742     0.44599568     0.42564718
     0.20967742     0.50481921     0.42564718
     0.20967742     0.56364274     0.42564718
     0.20967742     0.62246627     0.42564718
     0.20967742     0.68128980     0.42564718
     0.20967742     0.74011332     0.42564718
     0.20967742     0.79893685     0.42564718
     0.20967742     0.85776038     0.42564718
     0.20967742     0.91658391     0.42564718
     0.20967742     0.97540744     0.42564718
     0.24193548     0.03423097     0.42564718
     0.24193548     0.09305450     0.42564718
     0.24193548     0.15187803     0.42564718
     0.24193548     0.21070156     0.42564718
     0.24193548     0.26952509     0.42564718
     0.24193548     0.32834862     0.42564718
     0.24193548     0.38717215     0.42564718
     0.24193548     0.44599568     0.42564718
     0.24193548     0.50481921     0.42564718
     0.24193548     0.56364274     0.42564718
     0.24193548     0.62246627     0.42564718
     0.24193548     0.68128980     0.42564718
     0.24193548     0.74011332     0.42564718
     0.24193548     0.79893685     0.42564718
     0.24193548     0.85776038     0.42564718
     0.24193548     0.91658391     0.42564718
     0.24193548     0.97540744     0.42564718
     0.27419355     0.03423097     0.42564718
     0.27419355     0.09305450     0.42564718
     0.27419355     0.15187803     0.42564718
     0.27419355     0.21070156     0.42564718
     0.27419355     0.26952509     0.42564718
     0.27419355     0.32834862     0.42564718
     0.27419355     0.38717215     0.42564718
     0.27419355     0.44599568     0.42564718
     0.27419355     0.50481921     0.42564718
     0.27419355     0.56364274     0.42564718
     0.27419355     0.62246627     0.42564718
     0.27419355     0.68128980     0.42564718
     0.27419355     0.74011332     0.42564718
     0.27419355     0.79893685     0.42564718
     0.27419355     0.85776038     0.42564718
     0.27419355     0.91658391     0.42564718
     0.27419355     0.97540744     0.42564718
     0.30645161     0.03423097     0.42564718
     0.30645161     0.09305450     0.42564718
     0.30645161     0.15187803     0.42564718
     0.30645161     0.21070156     0.42564718
     0.30645161     0.26952509     0.42564718
     0.30645161     0.32834862     0.42564718
     0.30645161     0.38717215     0.42564718
     0.30645161     0.44599568     0.42564718
     0.30645161     0.50481921     0.42564718
     0.30645161     0.56364274     0.42564718
     0.30645161     0.62246627     0.42564718
     0.30645161     0.68128980     0.42564718
     0.30645161     0.74011332     0.42564718
     0.30645161     0.79893685     0.42564718
     0.30645161     0.85776038     0.42564718
     0.30645161     0.91658391     0.42564718
     0.30645161     0.97540744     0.42564718
     0.33870968     0.03423097     0.42564718
     0.33870968     0.09305450     0.42564718
     0.33870968     0.15187803     0.42564718
     0.33870968     0.21070156     0.42564718
     0.33870968     0.26952509     0.42564718
     0.33870968     0.32834862     0.42564718
     0.33870968     0.38717215     0.42564718
     0.33870968     0.44599568     0.42564718
     0.33870968     0.50481921     0.42564718
     0.33870968     0.56364274     0.42564718
     0.33870968     0.62246627     0.42564718
     0.33870968     0.68128980     0.42564718
     0.33870968     0.74011332     0.42564718
     0.33870968     0.79893685     0.42564718
     0.33870968     0.85776038     0.42564718
     0.33870968     0.91658391     0.42564718
     0.33870968     0.97540744     0.42564718
     0.37096774     0.03423097     0.42564718
     0.37096774     0.09305450     0.42564718
     0.37096774     0.15187803     0.42564718
     0.37096774     0.21070156     0.42564718
     0.37096774     0.26952509     0.42564718
     0.37096774     0.32834862     0.42564718
     0.37096774     0.38717215     0.42564718
     0.37096774     0.44599568     0.42564718
     0.37096774     0.50481921     0.42564718
     0.37096774     0.56364274     0.42564718
     0.37096774     0.62246627     0.42564718
     0.37096774     0.68128980     0.42564718
     0.37096774     0.74011332     0.42564718
     0.37096774     0.79893685     0.42564718
     0.37096774     0.85776038     0.42564718
     0.37096774     0.91658391     0.42564718
     0.37096774     0.97540744     0.42564718
     0.40322581     0.03423097     0.42564718
     0.40322581     0.09305450     0.42564718
     0.40322581     0.15187803     0.42564718
     0.40322581     0.21070156     0.42564718
     0.40322581     0.26952509     0.42564718
     0.40322581     0.32834862     0.42564718
     0.40322581     0.38717215     0.42564718
     0.40322581     0.44599568     0.42564718
     0.40322581     0.50481921     0.42564718
     0.40322581     0.56364274     0.42564718
     0.40322581     0.62246627     0.42564718
     0.40322581     0.68128980     0.42564718
     0.40322581     0.74011332     0.42564718
     0.40322581     0.79893685     0.42564718
     0.40322581     0.85776038     0.42564718
     0.40322581     0.91658391     0.42564718
     0.40322581     0.97540744     0.42564718
     0.43548387     0.03423097     0.42564718
     0.43548387     0.09305450     0.42564718
     0.43548387     0.15187803     0.42564718
     0.43548387     0.21070156     0.42564718
     0.43548387     0.26952509     0.42564718
     0.43548387     0.32834862     0.42564718
     0.43548387     0.38717215     0.42564718
     0.43548387     0.44599568     0.42564718
     0.43548387     0.50481921     0.42564718
     0.43548387     0.56364274     0.42564718
     0.43548387     0.62246627     0.42564718
     0.43548387     0.68128980     0.42564718
     0.43548387     0.74011332     0.42564718
     0.43548387     0.79893685     0.42564718
     0.43548387     0.85776038     0.42564718
     0.43548387     0.91658391     0.42564718
     0.43548387     0.97540744     0.42564718
     0.46774194     0.03423097     0.42564718
     0.46774194     0.09305450     0.42564718
     0.46774194     0.15187803     0.42564718
     0.46774194     0.21070156     0.42564718
     0.46774194     0.26952509     0.42564718
     0.46774194     0.32834862     0.42564718
     0.46774194     0.38717215     0.42564718
     0.46774194     0.44599568     0.42564718
     0.46774194     0.50481921     0.42564718
     0.46774194     0.56364274     0.42564718
     0.46774194     0.62246627     0.42564718
     0.46774194     0.68128980     0.42564718
     0.46774194     0.74011332     0.42564718
     0.46774194     0.79893685     0.42564718
     0.46774194     0.85776038     0.42564718
     0.46774194     0.91658391     0.42564718
     0.46774194     0.97540744     0.42564718
     0.50000000     0.03423097     0.42564718
     0.50000000     0.09305450     0.42564718
     0.50000000     0.15187803     0.42564718
     0.50000000     0.21070156     0.42564718
     0.50000000     0.26952509     0.42564718
     0.50000000     0.32834862     0.42564718
     0.50000000     0.38717215     0.42564718
     0.50000000     0.44599568     0.42564718
     0.50000000     0.50481921     0.42564718
     0.50000000     0.56364274     0.42564718
     0.50000000     0.62246627     0.42564718
     0.50000000     0.68128980     0.42564718
     0.50000000     0.74011332     0.42564718
     0.50000000     0.79893685     0.42564718
     0.50000000     0.85776038     0.42564718
     0.50000000     0.91658391     0.42564718
     0.50000000     0.97540744     0.42564718
     0.53225806     0.03423097     0.42564718
     0.53225806     0.09305450     0.42564718
     0.53225806     0.15187803     0.42564718
     0.53225806     0.21070156     0.42564718
     0.53225806     0.26952509     0.42564718
     0.53225806     0.32834862     0.42564718
     0.53225806     0.38717215     0.42564718
     0.53225806     0.44599568     0.42564718
     0.53225806     0.50481921     0.42564718
     0.53225806     0.56364274     0.42564718
     0.53225806     0.62246627     0.42564718
     0.53225806     0.68128980     0.42564718
     0.53225806     0.74011332     0.42564718
     0.53225806     0.79893685     0.42564718
     0.53225806     0.85776038     0.42564718
     0.53225806     0.91658391     0.42564718
     0.53225806     0.97540744     0.42564718
     0.56451613     0.03423097     0.42564718
     0.56451613     0.09305450     0.42564718
     0.56451613     0.15187803     0.42564718
     0.56451613     0.21070156     0.42564718
     0.56451613     0.26952509     0.42564718
     0.56451613     0.32834862     0.42564718
     0.56451613     0.38717215     0.42564718
     0.56451613     0.44599568     0.42564718
     0.56451613     0.50481921     0.42564718
     0.56451613     0.56364274     0.42564718
     0.56451613     0.62246627     0.42564718
     0.56451613     0.68128980     0.42564718
     0.56451613     0.74011332     0.42564718
     0.56451613     0.79893685     0.42564718
     0.56451613     0.85776038     0.42564718
     0.56451613     0.91658391     0.42564718
     0.56451613     0.97540744     0.42564718
     0.59677419     0.03423097     0.42564718
     0.59677419     0.09305450     0.42564718
     0.59677419     0.15187803     0.42564718
     0.59677419     0.21070156     0.42564718
     0.59677419     0.26952509     0.42564718
     0.59677419     0.32834862     0.42564718
     0.59677419     0.38717215     0.42564718
     0.59677419     0.44599568     0.42564718
     0.59677419     0.50481921     0.42564718
     0.59677419     0.56364274     0.42564718
     0.59677419     0.62246627     0.42564718
     0.59677419     0.68128980     0.42564718
     0.59677419     0.74011332     0.42564718
     0.59677419     0.79893685     0.42564718
     0.59677419     0.85776038     0.42564718
     0.59677419     0.91658391     0.42564718
     0.59677419     0.97540744     0.42564718
     0.62903226     0.03423097     0.42564718
     0.62903226     0.09305450     0.42564718
     0.62903226     0.15187803     0.42564718
     0.62903226     0.21070156     0.42564718
     0.62903226     0.26952509     0.42564718
     0.62903226     0.32834862     0.42564718
     0.62903226     0.38717215     0.42564718
     0.62903226     0.44599568     0.42564718
     0.62903226     0.50481921     0.42564718
     0.62903226     0.56364274     0.42564718
     0.62903226     0.62246627     0.42564718
     0.62903226     0.68128980     0.42564718
     0.62903226     0.74011332     0.42564718
     0.62903226     0.79893685     0.42564718
     0.62903226     0.85776038     0.42564718
     0.62903226     0.91658391     0.42564718
     0.62903226     0.97540744     0.42564718
     0.66129032     0.03423097     0.42564718
     0.66129032     0.09305450     0.42564718
     0.66129032     0.15187803     0.42564718
     0.66129032     0.21070156     0.42564718
     0.66129032     0.26952509     0.42564718
     0.66129032     0.32834862     0.42564718
     0.66129032     0.38717215     0.42564718
     0.66129032     0.44599568     0.42564718
     0.66129032     0.50481921     0.42564718
     0.66129032     0.56364274     0.42564718
     0.66129032     0.62246627     0.42564718
     0.66129032     0.68128980     0.42564718
     0.66129032     0.74011332     0.42564718
     0.66129032     0.79893685     0.42564718
     0.66129032     0.85776038     0.42564718
     0.66129032     0.91658391     0.42564718
     0.66129032     0.97540744     0.42564718
     0.69354839     0.03423097     0.42564718
     0.69354839     0.09305450     0.42564718
     0.69354839     0.15187803     0.42564718
     0.69354839     0.21070156     0.42564718
     0.69354839     0.26952509     0.42564718
     0.69354839     0.32834862     0.42564718
     0.69354839     0.38717215     0.42564718
     0.69354839     0.44599568     0.42564718
     0.69354839     0.50481921     0.42564718
     0.69354839     0.56364274     0.42564718
     0.69354839     0.62246627     0.42564718
     0.69354839     0.68128980     0.42564718
     0.69354839     0.74011332     0.42564718
     0.69354839     0.79893685     0.42564718
     0.69354839     0.85776038     0.42564718
     0.69354839     0.91658391     0.42564718
     0.69354839     0.97540744     0.42564718
     0.72580645     0.03423097     0.42564718
     0.72580645     0.09305450     0.42564718
     0.72580645     0.15187803     0.42564718
     0.72580645     0.21070156     0.42564718
     0.72580645     0.26952509     0.42564718
     0.72580645     0.32834862     0.42564718
     0.72580645     0.38717215     0.42564718
     0.72580645     0.44599568     0.42564718
     0.72580645     0.50481921     0.42564718
     0.72580645     0.56364274     0.42564718
     0.72580645     0.62246627     0.42564718
     0.72580645     0.68128980     0.42564718
     0.72580645     0.74011332     0.42564718
     0.72580645     0.79893685     0.42564718
     0.72580645     0.85776038     0.42564718
     0.72580645     0.91658391     0.42564718
     0.72580645     0.97540744     0.42564718
     0.75806452     0.03423097     0.42564718
     0.75806452     0.09305450     0.42564718
     0.75806452     0.15187803     0.42564718
     0.75806452     0.21070156     0.42564718
     0.75806452     0.26952509     0.42564718
     0.75806452     0.32834862     0.42564718
     0.75806452     0.38717215     0.42564718
     0.75806452     0.44599568     0.42564718
     0.75806452     0.50481921     0.42564718
     0.75806452     0.56364274     0.42564718
     0.75806452     0.62246627     0.42564718
     0.75806452     0.68128980     0.42564718
     0.75806452     0.74011332     0.42564718
     0.75806452     0.79893685     0.42564718
     0.75806452     0.85776038     0.42564718
     0.75806452     0.91658391     0.42564718
     0.75806452     0.97540744     0.42564718
     0.79032258     0.03423097     0.42564718
     0.79032258     0.09305450     0.42564718
     0.79032258     0.15187803     0.42564718
     0.79032258     0.21070156     0.42564718
     0.79032258     0.26952509     0.42564718
     0.79032258     0.32834862     0.42564718
     0.79032258     0.38717215     0.42564718
     0.79032258     0.44599568     0.42564718
     0.79032258     0.50481921     0.42564718
     0.79032258     0.56364274     0.42564718
     0.79032258     0.62246627     0.42564718
     0.79032258     0.68128980     0.42564718
     0.79032258     0.74011332     0.42564718
     0.79032258     0.79893685     0.42564718
     0.79032258     0.85776038     0.42564718
     0.79032258     0.91658391     0.42564718
     0.79032258     0.97540744     0.42564718
     0.82258065     0.03423097     0.42564718
     0.82258065     0.09305450     0.42564718
     0.82258065     0.15187803     0.42564718
     0.82258065     0.21070156     0.42564718
     0.82258065     0.26952509     0.42564718
     0.82258065     0.32834862     0.42564718
     0.82258065     0.38717215     0.42564718
     0.82258065     0.44599568     0.42564718
     0.82258065     0.50481921     0.42564718
     0.82258065     0.56364274     0.42564718
     0.82258065     0.62246627     0.42564718
     0.82258065     0.68128980     0.42564718
     0.82258065     0.74011332     0.42564718
     0.82258065     0.79893685     0.42564718
     0.82258065     0.85776038     0.42564718
     0.82258065     0.91658391     0.42564718
     0.82258065     0.97540744     0.42564718
     0.85483871     0.03423097     0.42564718
     0.85483871     0.09305450     0.42564718
     0.85483871     0.15187803     0.42564718
     0.85483871     0.21070156     0.42564718
     0.85483871     0.26952509     0.42564718
     0.85483871     0.32834862     0.42564718
     0.85483871     0.38717215     0.42564718
     0.85483871     0.44599568     0.42564718
     0.85483871     0.50481921     0.42564718
     0.85483871     0.56364274     0.42564718
     0.85483871     0.62246627     0.42564718
     0.85483871     0.68128980     0.42564718
     0.85483871     0.74011332     0.42564718
     0.85483871     0.79893685     0.42564718
     0.85483871     0.85776038     0.42564718
     0.85483871     0.91658391     0.42564718
     0.85483871     0.97540744     0.42564718
     0.88709677     0.03423097     0.42564718
     0.88709677     0.09305450     0.42564718
     0.88709677     0.15187803     0.42564718
     0.88709677     0.21070156     0.42564718
     0.88709677     0.26952509     0.42564718
     0.88709677     0.32834862     0.42564718
     0.88709677     0.38717215     0.42564718
     0.88709677     0.44599568     0.42564718
     0.88709677     0.50481921     0.42564718
     0.88709677     0.56364274     0.42564718
     0.88709677     0.62246627     0.42564718
     0.88709677     0.68128980     0.42564718
     0.88709677     0.74011332     0.42564718
     0.88709677     0.79893685     0.42564718
     0.88709677     0.85776038     0.42564718
     0.88709677     0.91658391     0.42564718
     0.88709677     0.97540744     0.42564718
     0.91935484     0.03423097     0.42564718
     0.91935484     0.09305450     0.42564718
     0.91935484     0.15187803     0.42564718
     0.91935484     0.21070156     0.42564718
     0.91935484     0.26952509     0.42564718
     0.91935484     0.32834862     0.42564718
     0.91935484     0.38717215     0.42564718
     0.91935484     0.44599568     0.42564718
     0.91935484     0.50481921     0.42564718
     0.91935484     0.56364274     0.42564718
     0.91935484     0.62246627     0.42564718
     0.91935484     0.68128980     0.42564718
     0.91935484     0.74011332     0.42564718
     0.91935484     0.79893685     0.42564718
     0.91935484     0.85776038     0.42564718
     0.91935484     0.91658391     0.42564718
     0.91935484     0.97540744     0.42564718
     0.95161290     0.03423097     0.42564718
     0.95161290     0.09305450     0.42564718
     0.95161290     0.15187803     0.42564718
     0.95161290     0.21070156     0.42564718
     0.95161290     0.26952509     0.42564718
     0.95161290     0.32834862     0.42564718
     0.95161290     0.38717215     0.42564718
     0.95161290     0.44599568     0.42564718
     0.95161290     0.50481921     0.42564718
     0.95161290     0.56364274     0.42564718
     0.95161290     0.62246627     0.42564718
     0.95161290     0.68128980     0.42564718
     0.95161290     0.74011332     0.42564718
     0.95161290     0.79893685     0.42564718
     0.95161290     0.85776038     0.42564718
     0.95161290     0.91658391     0.42564718
     0.95161290     0.97540744     0.42564718
     0.98387097     0.03423097     0.42564718
     0.98387097     0.09305450     0.42564718
     0.98387097     0.15187803     0.42564718
     0.98387097     0.21070156     0.42564718
     0.98387097     0.26952509     0.42564718
     0.98387097     0.32834862     0.42564718
     0.98387097     0.38717215     0.42564718
     0.98387097     0.44599568     0.42564718
     0.98387097     0.50481921     0.42564718
     0.98387097     0.56364274     0.42564718
     0.98387097     0.62246627     0.42564718
     0.98387097     0.68128980     0.42564718
     0.98387097     0.74011332     0.42564718
     0.98387097     0.79893685     0.42564718
     0.98387097     0.85776038     0.42564718
     0.98387097     0.91658391     0.42564718
     0.98387097     0.97540744     0.42564718
     0.01612903     0.02456087     0.31941913
     0.01612903     0.08338440     0.31941913
     0.01612903     0.14220793     0.31941913
     0.01612903     0.20103146     0.31941913
     0.01612903     0.25985499     0.31941913
     0.01612903     0.31867852     0.31941913
     0.01612903     0.37750205     0.31941913
     0.01612903     0.43632558     0.31941913
     0.01612903     0.49514911     0.31941913
     0.01612903     0.55397264     0.31941913
     0.01612903     0.61279616     0.31941913
     0.01612903     0.67161969     0.31941913
     0.01612903     0.73044322     0.31941913
     0.01612903     0.78926675     0.31941913
     0.01612903     0.84809028     0.31941913
     0.01612903     0.90691381     0.31941913
     0.01612903     0.96573734     0.31941913
     0.04838710     0.02456087     0.31941913
     0.04838710     0.08338440     0.31941913
     0.04838710     0.14220793     0.31941913
     0.04838710     0.20103146     0.31941913
     0.04838710     0.25985499     0.31941913
     0.04838710     0.31867852     0.31941913
     0.04838710     0.37750205     0.31941913
     0.04838710     0.43632558     0.31941913
     0.04838710     0.49514911     0.31941913
     0.04838710     0.55397264     0.31941913
     0.04838710     0.61279616     0.31941913
     0.04838710     0.67161969     0.31941913
     0.04838710     0.73044322     0.31941913
     0.04838710     0.78926675     0.31941913
     0.04838710     0.84809028     0.31941913
     0.04838710     0.90691381     0.31941913
     0.04838710     0.96573734     0.31941913
     0.08064516     0.02456087     0.31941913
     0.08064516     0.08338440     0.31941913
     0.08064516     0.14220793     0.31941913
     0.08064516     0.20103146     0.31941913
     0.08064516     0.25985499     0.31941913
     0.08064516     0.31867852     0.31941913
     0.08064516     0.37750205     0.31941913
     0.08064516     0.43632558     0.31941913
     0.08064516     0.49514911     0.31941913
     0.08064516     0.55397264     0.31941913
     0.08064516     0.61279616     0.31941913
     0.08064516     0.67161969     0.31941913
     0.08064516     0.73044322     0.31941913
     0.08064516     0.78926675     0.31941913
     0.08064516     0.84809028     0.31941913
     0.08064516     0.90691381     0.31941913
     0.08064516     0.96573734     0.31941913
     0.11290323     0.02456087     0.31941913
     0.11290323     0.08338440     0.31941913
     0.11290323     0.14220793     0.31941913
     0.11290323     0.20103146     0.31941913
     0.11290323     0.25985499     0.31941913
     0.11290323     0.31867852     0.31941913
     0.11290323     0.37750205     0.31941913
     0.11290323     0.43632558     0.31941913
     0.11290323     0.49514911     0.31941913
     0.11290323     0.55397264     0.31941913
     0.11290323     0.61279616     0.31941913
     0.11290323     0.67161969     0.31941913
     0.11290323     0.73044322     0.31941913
     0.11290323     0.78926675     0.31941913
     0.11290323     0.84809028     0.31941913
     0.11290323     0.90691381     0.31941913
     0.11290323     0.96573734     0.31941913
     0.14516129     0.02456087     0.31941913
     0.14516129     0.08338440     0.31941913
     0.14516129     0.14220793     0.31941913
     0.14516129     0.20103146     0.31941913
     0.14516129     0.25985499     0.31941913
     0.14516129     0.31867852     0.31941913
     0.14516129     0.37750205     0.31941913
     0.14516129     0.43632558     0.31941913
     0.14516129     0.49514911     0.31941913
     0.14516129     0.55397264     0.31941913
     0.14516129     0.61279616     0.31941913
     0.14516129     0.67161969     0.31941913
     0.14516129     0.73044322     0.31941913
     0.14516129     0.78926675     0.31941913
     0.14516129     0.84809028     0.31941913
     0.14516129     0.90691381     0.31941913
     0.14516129     0.96573734     0.31941913
     0.17741935     0.02456087     0.31941913
     0.17741935     0.08338440     0.31941913
     0.17741935     0.14220793     0.31941913
     0.17741935     0.20103146     0.31941913
     0.17741935     0.25985499     0.31941913
     0.17741935     0.31867852     0.31941913
     0.17741935     0.37750205     0.31941913
     0.17741935     0.43632558     0.31941913
     0.17741935     0.49514911     0.31941913
     0.17741935     0.55397264     0.31941913
     0.17741935     0.61279616     0.31941913
     0.17741935     0.67161969     0.31941913
     0.17741935     0.73044322     0.31941913
     0.17741935     0.78926675     0.31941913
     0.17741935     0.84809028     0.31941913
     0.17741935     0.90691381     0.31941913
     0.17741935     0.96573734     0.31941913
     0.20967742     0.02456087     0.31941913
     0.20967742     0.08338440     0.31941913
     0.20967742     0.14220793     0.31941913
     0.20967742     0.20103146     0.31941913
     0.20967742     0.25985499     0.31941913
     0.20967742     0.31867852     0.31941913
     0.20967742     0.37750205     0.31941913
     0.20967742     0.43632558     0.31941913
     0.20967742     0.49514911     0.31941913
     0.20967742     0.55397264     0.31941913
     0.20967742     0.61279616     0.31941913
     0.20967742     0.67161969     0.31941913
     0.20967742     0.73044322     0.31941913
     0.20967742     0.78926675     0.31941913
     0.20967742     0.84809028     0.31941913
     0.20967742     0.90691381     0.31941913
     0.20967742     0.96573734     0.31941913
     0.24193548     0.02456087     0.31941913