Generated by Twist2D
    1.0
     108.80098795       0.00000000       0.00000000
       0.00000000      79.74875392       0.00000000
       0.00000000       0.00000000      20.00000000
    P
    4756
Direct
     0.01515152     0.03232925     0.42564718
     0.01515152     0.08788481     0.42564718
     0.01515152     0.14344036     0.42564718
     0.01515152     0.19899592     0.42564718
     0.01515152     0.25455147     0.42564718
     0.01515152     0.31010703     0.42564718
     0.01515152     0.36566258     0.42564718
     0.01515152     0.42121814     0.42564718
     0.01515152     0.47677370     0.42564718
     0.01515152     0.53232925     0.42564718
     0.01515152     0.58788481     0.42564718
     0.01515152     0.64344036     0.42564718
     0.01515152     0.69899592     0.42564718
     0.01515152     0.75455147     0.42564718
     0.01515152     0.81010703     0.42564718
     0.01515152     0.86566258     0.42564718
     0.01515152     0.92121814     0.42564718
     0.01515152     0.97677370     0.42564718
     0.04545455     0.03232925     0.42564718
     0.04545455     0.08788481     0.42564718
     0.04545455     0.14344036     0.42564718
     0.04545455     0.19899592     0.42564718
     0.04545455     0.25455147     0.42564718
     0.04545455     0.31010703     0.42564718
     0.04545455     0.36566258     0.42564718
     0.04545455     0.42121814     0.42564718
     0.04545455     0.47677370     0.42564718
     0.04545455     0.53232925     0.42564718
     0.04545455     0.58788481     0.42564718
     0.04545455     0.64344036     0.42564718
     0.04545455     0.69899592     0.42564718
     0.04545455     0.75455147     0.42564718
     0.04545455     0.81010703     0.42564718
     0.04545455     0.86566258     0.42564718
     0.04545455     0.92121814     0.42564718
     0.04545455     0.97677370     0.42564718
     0.07575758     0.03232925     0.42564718
     0.07575758     0.08788481     0.42564718
     0.07575758     0.14344036     0.42564718
     0.07575758     0.19899592     0.42564718
     0.07575758     0.25455147     0.42564718
     0.07575758     0.31010703     0.42564718
     0.07575758     0.36566258     0.42564718
     0.07575758     0.42121814     0.42564718
     0.07575758     0.47677370     0.42564718
     0.07575758     0.53232925     0.42564718
     0.07575758     0.58788481     0.42564718
     0.07575758     0.64344036     0.42564718
     0.07575758     0.69899592     0.42564718
     0.07575758     0.75455147     0.42564718
     0.07575758     0.81010703     0.42564718
     0.07575758     0.86566258     0.42564718
     0.07575758     0.92121814     0.42564718
     0.07575758     0.97677370     0.42564718
     0.10606061     0.03232925     0.42564718
     0.10606061     0.08788481     0.42564718
     0.10606061     0.14344036     0.42564718
     0.10606061     0.19899592     0.42564718
     0.10606061     0.25455147     0.42564718
     0.10606061     0.31010703     0.42564718
     0.10606061     0.36566258     0.42564718
     0.10606061     0.42121814     0.42564718
     0.10606061     0.47677370     0.42564718
     0.10606061     0.53232925     0.42564718
     0.10606061     0.58788481     0.42564718
     0.10606061     0.64344036     0.42564718
     0.10606061     0.69899592     0.42564718
     0.10606061     0.75455147     0.42564718
     0.10606061     0.81010703     0.42564718
     0.10606061     0.86566258     0.42564718
     0.10606061     0.92121814     0.42564718
     0.10606061     0.97677370     0.42564718
     0.13636364     0.03232925     0.42564718
     0.13636364     0.08788481     0.42564718
     0.13636364     0.14344036     0.42564718
     0.13636364     0.19899592     0.42564718
     0.13636364     0.25455147     0.42564718
     0.13636364     0.31010703     0.42564718
     0.13636364     0.36566258     0.42564718
     0.13636364     0.42121814     0.42564718
     0.13636364     0.47677370     0.42564718
     0.13636364     0.53232925     0.42564718
     0.13636364     0.58788481     0.42564718
     0.13636364     0.64344036     0.42564718
     0.13636364     0.69899592     0.42564718
     0.13636364     0.75455147     0.42564718
     0.13636364     0.81010703     0.42564718
     0.13636364     0.86566258     0.42564718
     0.13636364     0.92121814     0.42564718
     0.13636364     0.97677370     0.42564718
     0.16666667     0.03232925     0.42564718
     0.16666667     0.08788481     0.42564718
     0.16666667     0.14344036     0.42564718
     0.16666667     0.19899592     0.42564718
     0.16666667     0.25455147     0.42564718
     0.16666667     0.31010703     0.42564718
     0.16666667     0.36566258     0.42564718
     0.16666667     0.42121814     0.42564718
     0.16666667     0.47677370     0.42564718
     0.16666667     0.53232925     0.42564718
     0.16666667     0.58788481     0.42564718
     0.16666667     0.64344036     0.42564718
     0.16666667     0.69899592     0.42564718
     0.16666667     0.75455147     0.42564718
     0.16666667     0.81010703     0.42564718
     0.16666667     0.86566258     0.42564718
     0.16666667     0.92121814     0.42564718
     0.16666667     0.97677370     0.42564718
     0.19696970     0.03232925     0.42564718
     0.19696970     0.08788481     0.42564718
     0.19696970     0.14344036     0.42564718
     0.19696970     0.19899592     0.42564718
     0.19696970     0.25455147     0.42564718
     0.19696970     0.31010703     0.42564718
     0.19696970     0.36566258     0.42564718
     0.19696970     0.42121814     0.42564718
     0.19696970     0.47677370     0.42564718
     0.19696970     0.53232925     0.42564718
     0.19696970     0.58788481     0.42564718
     0.19696970     0.64344036     0.42564718
     0.19696970     0.69899592     0.42564718
     0.19696970     0.75455147     0.42564718
     0.19696970     0.81010703     0.42564718
     0.19696970     0.86566258     0.42564718
     0.19696970     0.92121814     0.42564718
     0.19696970     0.97677370     0.42564718
     0.22727273     0.03232925     0.42564718
     0.22727273     0.08788481     0.42564718
     0.22727273     0.14344036     0.42564718
     0.22727273     0.19899592     0.42564718
     0.22727273     0.25455147     0.42564718
     0.22727273     0.31010703     0.42564718
     0.22727273     0.36566258     0.42564718
     0.22727273     0.42121814     0.42564718
     0.22727273     0.47677370     0.42564718
     0.22727273     0.53232925     0.42564718
     0.22727273     0.58788481     0.42564718
     0.22727273     0.64344036     0.42564718
     0.22727273     0.69899592     0.42564718
     0.22727273     0.75455147     0.42564718
     0.22727273     0.81010703     0.42564718
     0.22727273     0.86566258     0.42564718
     0.22727273     0.92121814     0.42564718
     0.22727273     0.97677370     0.42564718
     0.25757576     0.03232925     0.42564718
     0.25757576     0.08788481     0.42564718
     0.25757576     0.14344036     0.42564718
     0.25757576     0.19899592     0.42564718
     0.25757576     0.25455147     0.42564718
     0.25757576     0.31010703     0.42564718
     0.25757576     0.36566258     0.42564718
     0.25757576     0.42121814     0.42564718
     0.25757576     0.47677370     0.42564718
     0.25757576     0.53232925     0.42564718
     0.25757576     0.58788481     0.42564718
     0.25757576     0.64344036     0.42564718
     0.25757576     0.69899592     0.42564718
     0.25757576     0.75455147     0.42564718
     0.25757576     0.81010703     0.42564718
     0.25757576     0.86566258     0.42564718
     0.25757576     0.92121814     0.42564718
     0.25757576     0.97677370     0.42564718
     0.28787879     0.03232925     0.42564718
     0.28787879     0.08788481     0.42564718
     0.28787879     0.14344036     0.42564718
     0.28787879     0.19899592     0.42564718
     0.28787879     0.25455147     0.42564718
     0.28787879     0.31010703     0.42564718
     0.28787879     0.36566258     0.42564718
     0.28787879     0.42121814     0.42564718
     0.28787879     0.47677370     0.42564718
     0.28787879     0.53232925     0.42564718
     0.28787879     0.58788481     0.42564718
     0.28787879     0.64344036     0.42564718
     0.28787879     0.69899592     0.42564718
     0.28787879     0.75455147     0.42564718
     0.28787879     0.81010703     0.42564718
     0.28787879     0.86566258     0.42564718
     0.28787879     0.92121814     0.42564718
     0.28787879     0.97677370     0.42564718
     0.31818182     0.03232925     0.42564718
     0.31818182     0.08788481     0.42564718
     0.31818182     0.14344036     0.42564718
     0.31818182     0.19899592     0.42564718
     0.31818182     0.25455147     0.42564718
     0.31818182     0.31010703     0.42564718
     0.31818182     0.36566258     0.42564718
     0.31818182     0.42121814     0.42564718
     0.31818182     0.47677370     0.42564718
     0.31818182     0.53232925     0.42564718
     0.31818182     0.58788481     0.42564718
     0.31818182     0.64344036     0.42564718
     0.31818182     0.69899592     0.42564718
     0.31818182     0.75455147     0.42564718
     0.31818182     0.81010703     0.42564718
     0.31818182     0.86566258     0.42564718
     0.31818182     0.92121814     0.42564718
     0.31818182     0.97677370     0.42564718
     0.34848485     0.03232925     0.42564718
     0.34848485     0.08788481     0.42564718
     0.34848485     0.14344036     0.42564718
     0.34848485     0.19899592     0.42564718
     0.34848485     0.25455147     0.42564718
     0.34848485     0.31010703     0.42564718
     0.34848485     0.36566258     0.42564718
     0.34848485     0.42121814     0.42564718
     0.34848485     0.47677370     0.42564718
     0.34848485     0.53232925     0.42564718
     0.34848485     0.58788481     0.42564718
     0.34848485     0.64344036     0.42564718
     0.34848485     0.69899592     0.42564718
     0.34848485     0.75455147     0.42564718
     0.34848485     0.81010703     0.42564718
     0.34848485     0.86566258     0.42564718
     0.34848485     0.92121814     0.42564718
     0.34848485     0.97677370     0.42564718
     0.37878788     0.03232925     0.42564718
     0.37878788     0.08788481     0.42564718
     0.37878788     0.14344036     0.42564718
     0.37878788     0.19899592     0.42564718
     0.37878788     0.25455147     0.42564718
     0.37878788     0.31010703     0.42564718
     0.37878788     0.36566258     0.42564718
     0.37878788     0.42121814     0.42564718
     0.37878788     0.47677370     0.42564718
     0.37878788     0.53232925     0.42564718
     0.37878788     0.58788481     0.42564718
     0.37878788     0.64344036     0.42564718
     0.37878788     0.69899592     0.42564718
     0.37878788     0.75455147     0.42564718
     0.37878788     0.81010703     0.42564718
     0.37878788     0.86566258     0.42564718
     0.37878788     0.92121814     0.42564718
     0.37878788     0.97677370     0.42564718
     0.40909091     0.03232925     0.42564718
     0.40909091     0.08788481     0.42564718
     0.40909091     0.14344036     0.42564718
     0.40909091     0.19899592     0.42564718
     0.40909091     0.25455147     0.42564718
     0.40909091     0.31010703     0.42564718
     0.40909091     0.36566258     0.42564718
     0.40909091     0.42121814     0.42564718
     0.40909091     0.47677370     0.42564718
     0.40909091     0.53232925     0.42564718
     0.40909091     0.58788481     0.42564718
     0.40909091     0.64344036     0.42564718
     0.40909091     0.69899592     0.42564718
     0.40909091     0.75455147     0.42564718
     0.40909091     0.81010703     0.42564718
     0.40909091     0.86566258     0.42564718
     0.40909091     0.92121814     0.42564718
     0.40909091     0.97677370     0.42564718
     0.43939394     0.03232925     0.42564718
     0.43939394     0.08788481     0.42564718
     0.43939394     0.14344036     0.42564718
     0.43939394     0.19899592     0.42564718
     0.43939394     0.25455147     0.42564718
     0.43939394     0.31010703     0.42564718
     0.43939394     0.36566258     0.42564718
     0.43939394     0.42121814     0.42564718
     0.43939394     0.47677370     0.42564718
     0.43939394     0.53232925     0.42564718
     0.43939394     0.58788481     0.42564718
     0.43939394     0.64344036     0.42564718
     0.43939394     0.69899592     0.42564718
     0.43939394     0.75455147     0.42564718
     0.43939394     0.81010703     0.42564718
     0.43939394     0.86566258     0.42564718
     0.43939394     0.92121814     0.42564718
     0.43939394     0.97677370     0.42564718
     0.46969697     0.03232925     0.42564718
     0.46969697     0.08788481     0.42564718
     0.46969697     0.14344036     0.42564718
     0.46969697     0.19899592     0.42564718
     0.46969697     0.25455147     0.42564718
     0.46969697     0.31010703     0.42564718
     0.46969697     0.36566258     0.42564718
     0.46969697     0.42121814     0.42564718
     0.46969697     0.47677370     0.42564718
     0.46969697     0.53232925     0.42564718
     0.46969697     0.58788481     0.42564718
     0.46969697     0.64344036     0.42564718
     0.46969697     0.69899592     0.42564718
     0.46969697     0.75455147     0.42564718
     0.46969697     0.81010703     0.42564718
     0.46969697     0.86566258     0.42564718
     0.46969697     0.92121814     0.42564718
     0.46969697     0.97677370     0.42564718
     0.50000000     0.03232925     0.42564718
     0.50000000     0.08788481     0.42564718
     0.50000000     0.14344036     0.42564718
     0.50000000     0.19899592     0.42564718
     0.50000000     0.25455147     0.42564718
     0.50000000     0.31010703     0.42564718
     0.50000000     0.36566258     0.42564718
     0.50000000     0.42121814     0.42564718
     0.50000000     0.47677370     0.42564718
     0.50000000     0.53232925     0.42564718
     0.50000000     0.58788481     0.42564718
     0.50000000     0.64344036     0.42564718
     0.50000000     0.69899592     0.42564718
     0.50000000     0.75455147     0.42564718
     0.50000000     0.81010703     0.42564718
     0.50000000     0.86566258     0.42564718
     0.50000000     0.92121814     0.42564718
     0.50000000     0.97677370     0.42564718
     0.53030303     0.03232925     0.42564718
     0.53030303     0.08788481     0.42564718
     0.53030303     0.14344036     0.42564718
     0.53030303     0.19899592     0.42564718
     0.53030303     0.25455147     0.42564718
     0.53030303     0.31010703     0.42564718
     0.53030303     0.36566258     0.42564718
     0.53030303     0.42121814     0.42564718
     0.53030303     0.47677370     0.42564718
     0.53030303     0.53232925     0.42564718
     0.53030303     0.58788481     0.42564718
     0.53030303     0.64344036     0.42564718
     0.53030303     0.69899592     0.42564718
     0.53030303     0.75455147     0.42564718
     0.53030303     0.81010703     0.42564718
     0.53030303     0.86566258     0.42564718
     0.53030303     0.92121814     0.42564718
     0.53030303     0.97677370     0.42564718
     0.56060606     0.03232925     0.42564718
     0.56060606     0.08788481     0.42564718
     0.56060606     0.14344036     0.42564718
     0.56060606     0.19899592     0.42564718
     0.56060606     0.25455147     0.42564718
     0.56060606     0.31010703     0.42564718
     0.56060606     0.36566258     0.42564718
     0.56060606     0.42121814     0.42564718
     0.56060606     0.47677370     0.42564718
     0.56060606     0.53232925     0.42564718
     0.56060606     0.58788481     0.42564718
     0.56060606     0.64344036     0.42564718
     0.56060606     0.69899592     0.42564718
     0.56060606     0.75455147     0.42564718
     0.56060606     0.81010703     0.42564718
     0.56060606     0.86566258     0.42564718
     0.56060606     0.92121814     0.42564718
     0.56060606     0.97677370     0.42564718
     0.59090909     0.03232925     0.42564718
     0.59090909     0.08788481     0.42564718
     0.59090909     0.14344036     0.42564718
     0.59090909     0.19899592     0.42564718
     0.59090909     0.25455147     0.42564718
     0.59090909     0.31010703     0.42564718
     0.59090909     0.36566258     0.42564718
     0.59090909     0.42121814     0.42564718
     0.59090909     0.47677370     0.42564718
     0.59090909     0.53232925     0.42564718
     0.59090909     0.58788481     0.42564718
     0.59090909     0.64344036     0.42564718
     0.59090909     0.69899592     0.42564718
     0.59090909     0.75455147     0.42564718
     0.59090909     0.81010703     0.42564718
     0.59090909     0.86566258     0.42564718
     0.59090909     0.92121814     0.42564718
     0.59090909     0.97677370     0.42564718
     0.62121212     0.03232925     0.42564718
     0.62121212     0.08788481     0.42564718
     0.62121212     0.14344036     0.42564718
     0.62121212     0.19899592     0.42564718
     0.62121212     0.25455147     0.42564718
     0.62121212     0.31010703     0.42564718
     0.62121212     0.36566258     0.42564718
     0.62121212     0.42121814     0.42564718
     0.62121212     0.47677370     0.42564718
     0.62121212     0.53232925     0.42564718
     0.62121212     0.58788481     0.42564718
     0.62121212     0.64344036     0.42564718
     0.62121212     0.69899592     0.42564718
     0.62121212     0.75455147     0.42564718
     0.62121212     0.81010703     0.42564718
     0.62121212     0.86566258     0.42564718
     0.62121212     0.92121814     0.42564718
     0.62121212     0.97677370     0.42564718
     0.65151515     0.03232925     0.42564718
     0.65151515     0.08788481     0.42564718
     0.65151515     0.14344036     0.42564718
     0.65151515     0.19899592     0.42564718
     0.65151515     0.25455147     0.42564718
     0.65151515     0.31010703     0.42564718
     0.65151515     0.36566258     0.42564718
     0.65151515     0.42121814     0.42564718
     0.65151515     0.47677370     0.42564718
     0.65151515     0.53232925     0.42564718
     0.65151515     0.58788481     0.42564718
     0.65151515     0.64344036     0.42564718
     0.65151515     0.69899592     0.42564718
     0.65151515     0.75455147     0.42564718
     0.65151515     0.81010703     0.42564718
     0.65151515     0.86566258     0.42564718
     0.65151515     0.92121814     0.42564718
     0.65151515     0.97677370     0.42564718
     0.68181818     0.03232925     0.42564718
     0.68181818     0.08788481     0.42564718
     0.68181818     0.14344036     0.42564718
     0.68181818     0.19899592     0.42564718
     0.68181818     0.25455147     0.42564718
     0.68181818     0.31010703     0.42564718
     0.68181818     0.36566258     0.42564718
     0.68181818     0.42121814     0.42564718
     0.68181818     0.47677370     0.42564718
     0.68181818     0.53232925     0.42564718
     0.68181818     0.58788481     0.42564718
     0.68181818     0.64344036     0.42564718
     0.68181818     0.69899592     0.42564718
     0.68181818     0.75455147     0.42564718
     0.68181818     0.81010703     0.42564718
     0.68181818     0.86566258     0.42564718
     0.68181818     0.92121814     0.42564718
     0.68181818     0.97677370     0.42564718
     0.71212121     0.03232925     0.42564718
     0.71212121     0.08788481     0.42564718
     0.71212121     0.14344036     0.42564718
     0.71212121     0.19899592     0.42564718
     0.71212121     0.25455147     0.42564718
     0.71212121     0.31010703     0.42564718
     0.71212121     0.36566258     0.42564718
     0.71212121     0.42121814     0.42564718
     0.71212121     0.47677370     0.42564718
     0.71212121     0.53232925     0.42564718
     0.71212121     0.58788481     0.42564718
     0.71212121     0.64344036     0.42564718
     0.71212121     0.69899592     0.42564718
     0.71212121     0.75455147     0.42564718
     0.71212121     0.81010703     0.42564718
     0.71212121     0.86566258     0.42564718
     0.71212121     0.92121814     0.42564718
     0.71212121     0.97677370     0.42564718
     0.74242424     0.03232925     0.42564718
     0.74242424     0.08788481     0.42564718
     0.74242424     0.14344036     0.42564718
     0.74242424     0.19899592     0.42564718
     0.74242424     0.25455147     0.42564718
     0.74242424     0.31010703     0.42564718
     0.74242424     0.36566258     0.42564718
     0.74242424     0.42121814     0.42564718
     0.74242424     0.47677370     0.42564718
     0.74242424     0.53232925     0.42564718
     0.74242424     0.58788481     0.42564718
     0.74242424     0.64344036     0.42564718
     0.74242424     0.69899592     0.42564718
     0.74242424     0.75455147     0.42564718
     0.74242424     0.81010703     0.42564718
     0.74242424     0.86566258     0.42564718
     0.74242424     0.92121814     0.42564718
     0.74242424     0.97677370     0.42564718
     0.77272727     0.03232925     0.42564718
     0.77272727     0.08788481     0.42564718
     0.77272727     0.14344036     0.42564718
     0.77272727     0.19899592     0.42564718
     0.77272727     0.25455147     0.42564718
     0.77272727     0.31010703     0.42564718
     0.77272727     0.36566258     0.42564718
     0.77272727     0.42121814     0.42564718
     0.77272727     0.47677370     0.42564718
     0.77272727     0.53232925     0.42564718
     0.77272727     0.58788481     0.42564718
     0.77272727     0.64344036     0.42564718
     0.77272727     0.69899592     0.42564718
     0.77272727     0.75455147     0.42564718
     0.77272727     0.81010703     0.42564718
     0.77272727     0.86566258     0.42564718
     0.77272727     0.92121814     0.42564718
     0.77272727     0.97677370     0.42564718
     0.80303030     0.03232925     0.42564718
     0.80303030     0.08788481     0.42564718
     0.80303030     0.14344036     0.42564718
     0.80303030     0.19899592     0.42564718
     0.80303030     0.25455147     0.42564718
     0.80303030     0.31010703     0.42564718
     0.80303030     0.36566258     0.42564718
     0.80303030     0.42121814     0.42564718
     0.80303030     0.47677370     0.42564718
     0.80303030     0.53232925     0.42564718
     0.80303030     0.58788481     0.42564718
     0.80303030     0.64344036     0.42564718
     0.80303030     0.69899592     0.42564718
     0.80303030     0.75455147     0.42564718
     0.80303030     0.81010703     0.42564718
     0.80303030     0.86566258     0.42564718
     0.80303030     0.92121814     0.42564718
     0.80303030     0.97677370     0.42564718
     0.83333333     0.03232925     0.42564718
     0.83333333     0.08788481     0.42564718
     0.83333333     0.14344036     0.42564718
     0.83333333     0.19899592     0.42564718
     0.83333333     0.25455147     0.42564718
     0.83333333     0.31010703     0.42564718
     0.83333333     0.36566258     0.42564718
     0.83333333     0.42121814     0.42564718
     0.83333333     0.47677370     0.42564718
     0.83333333     0.53232925     0.42564718
     0.83333333     0.58788481     0.42564718
     0.83333333     0.64344036     0.42564718
     0.83333333     0.69899592     0.42564718
     0.83333333     0.75455147     0.42564718
     0.83333333     0.81010703     0.42564718
     0.83333333     0.86566258     0.42564718
     0.83333333     0.92121814     0.42564718
     0.83333333     0.97677370     0.42564718
     0.86363636     0.03232925     0.42564718
     0.86363636     0.08788481     0.42564718
     0.86363636     0.14344036     0.42564718
     0.86363636     0.19899592     0.42564718
     0.86363636     0.25455147     0.42564718
     0.86363636     0.31010703     0.42564718
     0.86363636     0.36566258     0.42564718
     0.86363636     0.42121814     0.42564718
     0.86363636     0.47677370     0.42564718
     0.86363636     0.53232925     0.42564718
     0.86363636     0.58788481     0.42564718
     0.86363636     0.64344036     0.42564718
     0.86363636     0.69899592     0.42564718
     0.86363636     0.75455147     0.42564718
     0.86363636     0.81010703     0.42564718
     0.86363636     0.86566258     0.42564718
     0.86363636     0.92121814     0.42564718
     0.86363636     0.97677370     0.42564718
     0.89393939     0.03232925     0.42564718
     0.89393939     0.08788481     0.42564718
     0.89393939     0.14344036     0.42564718
     0.89393939     0.19899592     0.42564718
     0.89393939     0.25455147     0.42564718
     0.89393939     0.31010703     0.42564718
     0.89393939     0.36566258     0.42564718
     0.89393939     0.42121814     0.42564718
     0.89393939     0.47677370     0.42564718
     0.89393939     0.53232925     0.42564718
     0.89393939     0.58788481     0.42564718
     0.89393939     0.64344036     0.42564718
     0.89393939     0.69899592     0.42564718
     0.89393939     0.75455147     0.42564718
     0.89393939     0.81010703     0.42564718
     0.89393939     0.86566258     0.42564718
     0.89393939     0.92121814     0.42564718
     0.89393939     0.97677370     0.42564718
     0.92424242     0.03232925     0.42564718
     0.92424242     0.08788481     0.42564718
     0.92424242     0.14344036     0.42564718
     0.92424242     0.19899592     0.42564718
     0.92424242     0.25455147     0.42564718
     0.92424242     0.31010703     0.42564718
     0.92424242     0.36566258     0.42564718
     0.92424242     0.42121814     0.42564718
     0.92424242     0.47677370     0.42564718
     0.92424242     0.53232925     0.42564718
     0.92424242     0.58788481     0.42564718
     0.92424242     0.64344036     0.42564718
     0.92424242     0.69899592     0.42564718
     0.92424242     0.75455147     0.42564718
     0.92424242     0.81010703     0.42564718
     0.92424242     0.86566258     0.42564718
     0.92424242     0.92121814     0.42564718
     0.92424242     0.97677370     0.42564718
     0.95454545     0.03232925     0.42564718
     0.95454545     0.08788481     0.42564718
     0.95454545     0.14344036     0.42564718
     0.95454545     0.19899592     0.42564718
     0.95454545     0.25455147     0.42564718
     0.95454545     0.31010703     0.42564718
     0.95454545     0.36566258     0.42564718
     0.95454545     0.42121814     0.42564718
     0.95454545     0.47677370     0.42564718
     0.95454545     0.53232925     0.42564718
     0.95454545     0.58788481     0.42564718
     0.95454545     0.64344036     0.42564718
     0.95454545     0.69899592     0.42564718
     0.95454545     0.75455147     0.42564718
     0.95454545     0.81010703     0.42564718
     0.95454545     0.86566258     0.42564718
     0.95454545     0.92121814     0.42564718
     0.95454545     0.97677370     0.42564718
     0.98484848     0.03232925     0.42564718
     0.98484848     0.08788481     0.42564718
     0.98484848     0.14344036     0.42564718
     0.98484848     0.19899592     0.42564718
     0.98484848     0.25455147     0.42564718
     0.98484848     0.31010703     0.42564718
     0.98484848     0.36566258     0.42564718
     0.98484848     0.42121814     0.42564718
     0.98484848     0.47677370     0.42564718
     0.98484848     0.53232925     0.42564718
     0.98484848     0.58788481     0.42564718
     0.98484848     0.64344036     0.42564718
     0.98484848     0.69899592     0.42564718
     0.98484848     0.75455147     0.42564718
     0.98484848     0.81010703     0.42564718
     0.98484848     0.86566258     0.42564718
     0.98484848     0.92121814     0.42564718
     0.98484848     0.97677370     0.42564718
     0.01515152     0.02319638     0.31941913
     0.01515152     0.07875193     0.31941913
     0.01515152     0.13430749     0.31941913
     0.01515152     0.18986304     0.31941913
     0.01515152     0.24541860     0.31941913
     0.01515152     0.30097416     0.31941913
     0.01515152     0.35652971     0.31941913
     0.01515152     0.41208527     0.31941913
     0.01515152     0.46764082     0.31941913
     0.01515152     0.52319638     0.31941913
     0.01515152     0.57875193     0.31941913
     0.01515152     0.63430749     0.31941913
     0.01515152     0.68986304     0.31941913
     0.01515152     0.74541860     0.31941913
     0.01515152     0.80097416     0.31941913
     0.01515152     0.85652971     0.31941913
     0.01515152     0.91208527     0.31941913
     0.01515152     0.96764082     0.31941913
     0.04545455     0.02319638     0.31941913
     0.04545455     0.07875193     0.31941913
     0.04545455     0.13430749     0.31941913
     0.04545455     0.18986304     0.31941913
     0.04545455     0.24541860     0.31941913
     0.04545455     0.30097416     0.31941913
     0.04545455     0.35652971     0.31941913
     0.04545455     0.41208527     0.31941913
     0.04545455     0.46764082     0.31941913
     0.04545455     0.52319638     0.31941913
     0.04545455     0.57875193     0.31941913
     0.04545455     0.63430749     0.31941913
     0.04545455     0.68986304     0.31941913
     0.04545455     0.74541860     0.31941913
     0.04545455     0.80097416     0.31941913
     0.04545455     0.85652971     0.31941913
     0.04545455     0.91208527     0.31941913
     0.04545455     0.96764082     0.31941913
     0.07575758     0.02319638     0.31941913
     0.07575758     0.07875193     0.31941913
     0.07575758     0.13430749     0.31941913
     0.07575758     0.18986304     0.31941913
     0.07575758     0.24541860     0.31941913
     0.07575758     0.30097416     0.31941913
     0.07575758     0.35652971     0.31941913
     0.07575758     0.41208527     0.31941913
     0.07575758     0.46764082     0.31941913
     0.07575758     0.52319638     0.31941913
     0.07575758     0.57875193     0.31941913
     0.07575758     0.63430749     0.31941913
     0.07575758     0.68986304     0.31941913
     0.07575758     0.74541860     0.31941913
     0.07575758     0.80097416     0.31941913
     0.07575758     0.85652971     0.31941913
     0.07575758     0.91208527     0.31941913