Generated by Twist2D
    1.0
      95.61298941       0.00000000       0.00000000
       0.00000000      70.88778126       0.00000000
       0.00000000       0.00000000      20.00000000
    P
    3716
Direct
     0.01724138     0.03637041     0.42564718
     0.01724138     0.09887041     0.42564718
     0.01724138     0.16137041     0.42564718
     0.01724138     0.22387041     0.42564718
     0.01724138     0.28637041     0.42564718
     0.01724138     0.34887041     0.42564718
     0.01724138     0.41137041     0.42564718
     0.01724138     0.47387041     0.42564718
     0.01724138     0.53637041     0.42564718
     0.01724138     0.59887041     0.42564718
     0.01724138     0.66137041     0.42564718
     0.01724138     0.72387041     0.42564718
     0.01724138     0.78637041     0.42564718
     0.01724138     0.84887041     0.42564718
     0.01724138     0.91137041     0.42564718
     0.01724138     0.97387041     0.42564718
     0.05172414     0.03637041     0.42564718
     0.05172414     0.09887041     0.42564718
     0.05172414     0.16137041     0.42564718
     0.05172414     0.22387041     0.42564718
     0.05172414     0.28637041     0.42564718
     0.05172414     0.34887041     0.42564718
     0.05172414     0.41137041     0.42564718
     0.05172414     0.47387041     0.42564718
     0.05172414     0.53637041     0.42564718
     0.05172414     0.59887041     0.42564718
     0.05172414     0.66137041     0.42564718
     0.05172414     0.72387041     0.42564718
     0.05172414     0.78637041     0.42564718
     0.05172414     0.84887041     0.42564718
     0.05172414     0.91137041     0.42564718
     0.05172414     0.97387041     0.42564718
     0.08620690     0.03637041     0.42564718
     0.08620690     0.09887041     0.42564718
     0.08620690     0.16137041     0.42564718
     0.08620690     0.22387041     0.42564718
     0.08620690     0.28637041     0.42564718
     0.08620690     0.34887041     0.42564718
     0.08620690     0.41137041     0.42564718
     0.08620690     0.47387041     0.42564718
     0.08620690     0.53637041     0.42564718
     0.08620690     0.59887041     0.42564718
     0.08620690     0.66137041     0.42564718
     0.08620690     0.72387041     0.42564718
     0.08620690     0.78637041     0.42564718
     0.08620690     0.84887041     0.42564718
     0.08620690     0.91137041     0.42564718
     0.08620690     0.97387041     0.42564718
     0.12068966     0.03637041     0.42564718
     0.12068966     0.09887041     0.42564718
     0.12068966     0.16137041     0.42564718
     0.12068966     0.22387041     0.42564718
     0.12068966     0.28637041     0.42564718
     0.12068966     0.34887041     0.42564718
     0.12068966     0.41137041     0.42564718
     0.12068966     0.47387041     0.42564718
     0.12068966     0.53637041     0.42564718
     0.12068966     0.59887041     0.42564718
     0.12068966     0.66137041     0.42564718
     0.12068966     0.72387041     0.42564718
     0.12068966     0.78637041     0.42564718
     0.12068966     0.84887041     0.42564718
     0.12068966     0.91137041     0.42564718
     0.12068966     0.97387041     0.42564718
     0.15517241     0.03637041     0.42564718
     0.15517241     0.09887041     0.42564718
     0.15517241     0.16137041     0.42564718
     0.15517241     0.22387041     0.42564718
     0.15517241     0.28637041     0.42564718
     0.15517241     0.34887041     0.42564718
     0.15517241     0.41137041     0.42564718
     0.15517241     0.47387041     0.42564718
     0.15517241     0.53637041     0.42564718
     0.15517241     0.59887041     0.42564718
     0.15517241     0.66137041     0.42564718
     0.15517241     0.72387041     0.42564718
     0.15517241     0.78637041     0.42564718
     0.15517241     0.84887041     0.42564718
     0.15517241     0.91137041     0.42564718
     0.15517241     0.97387041     0.42564718
     0.18965517     0.03637041     0.42564718
     0.18965517     0.09887041     0.42564718
     0.18965517     0.16137041     0.42564718
     0.18965517     0.22387041     0.42564718
     0.18965517     0.28637041     0.42564718
     0.18965517     0.34887041     0.42564718
     0.18965517     0.41137041     0.42564718
     0.18965517     0.47387041     0.42564718
     0.18965517     0.53637041     0.42564718
     0.18965517     0.59887041     0.42564718
     0.18965517     0.66137041     0.42564718
     0.18965517     0.72387041     0.42564718
     0.18965517     0.78637041     0.42564718
     0.18965517     0.84887041     0.42564718
     0.18965517     0.91137041     0.42564718
     0.18965517     0.97387041     0.42564718
     0.22413793     0.03637041     0.42564718
     0.22413793     0.09887041     0.42564718
     0.22413793     0.16137041     0.42564718
     0.22413793     0.22387041     0.42564718
     0.22413793     0.28637041     0.42564718
     0.22413793     0.34887041     0.42564718
     0.22413793     0.41137041     0.42564718
     0.22413793     0.47387041     0.42564718
     0.22413793     0.53637041     0.42564718
     0.22413793     0.59887041     0.42564718
     0.22413793     0.66137041     0.42564718
     0.22413793     0.72387041     0.42564718
     0.22413793     0.78637041     0.42564718
     0.22413793     0.84887041     0.42564718
     0.22413793     0.91137041     0.42564718
     0.22413793     0.97387041     0.42564718
     0.25862069     0.03637041     0.42564718
     0.25862069     0.09887041     0.42564718
     0.25862069     0.16137041     0.42564718
     0.25862069     0.22387041     0.42564718
     0.25862069     0.28637041     0.42564718
     0.25862069     0.34887041     0.42564718
     0.25862069     0.41137041     0.42564718
     0.25862069     0.47387041     0.42564718
     0.25862069     0.53637041     0.42564718
     0.25862069     0.59887041     0.42564718
     0.25862069     0.66137041     0.42564718
     0.25862069     0.72387041     0.42564718
     0.25862069     0.78637041     0.42564718
     0.25862069     0.84887041     0.42564718
     0.25862069     0.91137041     0.42564718
     0.25862069     0.97387041     0.42564718
     0.29310345     0.03637041     0.42564718
     0.29310345     0.09887041     0.42564718
     0.29310345     0.16137041     0.42564718
     0.29310345     0.22387041     0.42564718
     0.29310345     0.28637041     0.42564718
     0.29310345     0.34887041     0.42564718
     0.29310345     0.41137041     0.42564718
     0.29310345     0.47387041     0.42564718
     0.29310345     0.53637041     0.42564718
     0.29310345     0.59887041     0.42564718
     0.29310345     0.66137041     0.42564718
     0.29310345     0.72387041     0.42564718
     0.29310345     0.78637041     0.42564718
     0.29310345     0.84887041     0.42564718
     0.29310345     0.91137041     0.42564718
     0.29310345     0.97387041     0.42564718
     0.32758621     0.03637041     0.42564718
     0.32758621     0.09887041     0.42564718
     0.32758621     0.16137041     0.42564718
     0.32758621     0.22387041     0.42564718
     0.32758621     0.28637041     0.42564718
     0.32758621     0.34887041     0.42564718
     0.32758621     0.41137041     0.42564718
     0.32758621     0.47387041     0.42564718
     0.32758621     0.53637041     0.42564718
     0.32758621     0.59887041     0.42564718
     0.32758621     0.66137041     0.42564718
     0.32758621     0.72387041     0.42564718
     0.32758621     0.78637041     0.42564718
     0.32758621     0.84887041     0.42564718
     0.32758621     0.91137041     0.42564718
     0.32758621     0.97387041     0.42564718
     0.36206897     0.03637041     0.42564718
     0.36206897     0.09887041     0.42564718
     0.36206897     0.16137041     0.42564718
     0.36206897     0.22387041     0.42564718
     0.36206897     0.28637041     0.42564718
     0.36206897     0.34887041     0.42564718
     0.36206897     0.41137041     0.42564718
     0.36206897     0.47387041     0.42564718
     0.36206897     0.53637041     0.42564718
     0.36206897     0.59887041     0.42564718
     0.36206897     0.66137041     0.42564718
     0.36206897     0.72387041     0.42564718
     0.36206897     0.78637041     0.42564718
     0.36206897     0.84887041     0.42564718
     0.36206897     0.91137041     0.42564718
     0.36206897     0.97387041     0.42564718
     0.39655172     0.03637041     0.42564718
     0.39655172     0.09887041     0.42564718
     0.39655172     0.16137041     0.42564718
     0.39655172     0.22387041     0.42564718
     0.39655172     0.28637041     0.42564718
     0.39655172     0.34887041     0.42564718
     0.39655172     0.41137041     0.42564718
     0.39655172     0.47387041     0.42564718
     0.39655172     0.53637041     0.42564718
     0.39655172     0.59887041     0.42564718
     0.39655172     0.66137041     0.42564718
     0.39655172     0.72387041     0.42564718
     0.39655172     0.78637041     0.42564718
     0.39655172     0.84887041     0.42564718
     0.39655172     0.91137041     0.42564718
     0.39655172     0.97387041     0.42564718
     0.43103448     0.03637041     0.42564718
     0.43103448     0.09887041     0.42564718
     0.43103448     0.16137041     0.42564718
     0.43103448     0.22387041     0.42564718
     0.43103448     0.28637041     0.42564718
     0.43103448     0.34887041     0.42564718
     0.43103448     0.41137041     0.42564718
     0.43103448     0.47387041     0.42564718
     0.43103448     0.53637041     0.42564718
     0.43103448     0.59887041     0.42564718
     0.43103448     0.66137041     0.42564718
     0.43103448     0.72387041     0.42564718
     0.43103448     0.78637041     0.42564718
     0.43103448     0.84887041     0.42564718
     0.43103448     0.91137041     0.42564718
     0.43103448     0.97387041     0.42564718
     0.46551724     0.03637041     0.42564718
     0.46551724     0.09887041     0.42564718
     0.46551724     0.16137041     0.42564718
     0.46551724     0.22387041     0.42564718
     0.46551724     0.28637041     0.42564718
     0.46551724     0.34887041     0.42564718
     0.46551724     0.41137041     0.42564718
     0.46551724     0.47387041     0.42564718
     0.46551724     0.53637041     0.42564718
     0.46551724     0.59887041     0.42564718
     0.46551724     0.66137041     0.42564718
     0.46551724     0.72387041     0.42564718
     0.46551724     0.78637041     0.42564718
     0.46551724     0.84887041     0.42564718
     0.46551724     0.91137041     0.42564718
     0.46551724     0.97387041     0.42564718
     0.50000000     0.03637041     0.42564718
     0.50000000     0.09887041     0.42564718
     0.50000000     0.16137041     0.42564718
     0.50000000     0.22387041     0.42564718
     0.50000000     0.28637041     0.42564718
     0.50000000     0.34887041     0.42564718
     0.50000000     0.41137041     0.42564718
     0.50000000     0.47387041     0.42564718
     0.50000000     0.53637041     0.42564718
     0.50000000     0.59887041     0.42564718
     0.50000000     0.66137041     0.42564718
     0.50000000     0.72387041     0.42564718
     0.50000000     0.78637041     0.42564718
     0.50000000     0.84887041     0.42564718
     0.50000000     0.91137041     0.42564718
     0.50000000     0.97387041     0.42564718
     0.53448276     0.03637041     0.42564718
     0.53448276     0.09887041     0.42564718
     0.53448276     0.16137041     0.42564718
     0.53448276     0.22387041     0.42564718
     0.53448276     0.28637041     0.42564718
     0.53448276     0.34887041     0.42564718
     0.53448276     0.41137041     0.42564718
     0.53448276     0.47387041     0.42564718
     0.53448276     0.53637041     0.42564718
     0.53448276     0.59887041     0.42564718
     0.53448276     0.66137041     0.42564718
     0.53448276     0.72387041     0.42564718
     0.53448276     0.78637041     0.42564718
     0.53448276     0.84887041     0.42564718
     0.53448276     0.91137041     0.42564718
     0.53448276     0.97387041     0.42564718
     0.56896552     0.03637041     0.42564718
     0.56896552     0.09887041     0.42564718
     0.56896552     0.16137041     0.42564718
     0.56896552     0.22387041     0.42564718
     0.56896552     0.28637041     0.42564718
     0.56896552     0.34887041     0.42564718
     0.56896552     0.41137041     0.42564718
     0.56896552     0.47387041     0.42564718
     0.56896552     0.53637041     0.42564718
     0.56896552     0.59887041     0.42564718
     0.56896552     0.66137041     0.42564718
     0.56896552     0.72387041     0.42564718
     0.56896552     0.78637041     0.42564718
     0.56896552     0.84887041     0.42564718
     0.56896552     0.91137041     0.42564718
     0.56896552     0.97387041     0.42564718
     0.60344828     0.03637041     0.42564718
     0.60344828     0.09887041     0.42564718
     0.60344828     0.16137041     0.42564718
     0.60344828     0.22387041     0.42564718
     0.60344828     0.28637041     0.42564718
     0.60344828     0.34887041     0.42564718
     0.60344828     0.41137041     0.42564718
     0.60344828     0.47387041     0.42564718
     0.60344828     0.53637041     0.42564718
     0.60344828     0.59887041     0.42564718
     0.60344828     0.66137041     0.42564718
     0.60344828     0.72387041     0.42564718
     0.60344828     0.78637041     0.42564718
     0.60344828     0.84887041     0.42564718
     0.60344828     0.91137041     0.42564718
     0.60344828     0.97387041     0.42564718
     0.63793103     0.03637041     0.42564718
     0.63793103     0.09887041     0.42564718
     0.63793103     0.16137041     0.42564718
     0.63793103     0.22387041     0.42564718
     0.63793103     0.28637041     0.42564718
     0.63793103     0.34887041     0.42564718
     0.63793103     0.41137041     0.42564718
     0.63793103     0.47387041     0.42564718
     0.63793103     0.53637041     0.42564718
     0.63793103     0.59887041     0.42564718
     0.63793103     0.66137041     0.42564718
     0.63793103     0.72387041     0.42564718
     0.63793103     0.78637041     0.42564718
     0.63793103     0.84887041     0.42564718
     0.63793103     0.91137041     0.42564718
     0.63793103     0.97387041     0.42564718
     0.67241379     0.03637041     0.42564718
     0.67241379     0.09887041     0.42564718
     0.67241379     0.16137041     0.42564718
     0.67241379     0.22387041     0.42564718
     0.67241379     0.28637041     0.42564718
     0.67241379     0.34887041     0.42564718
     0.67241379     0.41137041     0.42564718
     0.67241379     0.47387041     0.42564718
     0.67241379     0.53637041     0.42564718
     0.67241379     0.59887041     0.42564718
     0.67241379     0.66137041     0.42564718
     0.67241379     0.72387041     0.42564718
     0.67241379     0.78637041     0.42564718
     0.67241379     0.84887041     0.42564718
     0.67241379     0.91137041     0.42564718
     0.67241379     0.97387041     0.42564718
     0.70689655     0.03637041     0.42564718
     0.70689655     0.09887041     0.42564718
     0.70689655     0.16137041     0.42564718
     0.70689655     0.22387041     0.42564718
     0.70689655     0.28637041     0.42564718
     0.70689655     0.34887041     0.42564718
     0.70689655     0.41137041     0.42564718
     0.70689655     0.47387041     0.42564718
     0.70689655     0.53637041     0.42564718
     0.70689655     0.59887041     0.42564718
     0.70689655     0.66137041     0.42564718
     0.70689655     0.72387041     0.42564718
     0.70689655     0.78637041     0.42564718
     0.70689655     0.84887041     0.42564718
     0.70689655     0.91137041     0.42564718
     0.70689655     0.97387041     0.42564718
     0.74137931     0.03637041     0.42564718
     0.74137931     0.09887041     0.42564718
     0.74137931     0.16137041     0.42564718
     0.74137931     0.22387041     0.42564718
     0.74137931     0.28637041     0.42564718
     0.74137931     0.34887041     0.42564718
     0.74137931     0.41137041     0.42564718
     0.74137931     0.47387041     0.42564718
     0.74137931     0.53637041     0.42564718
     0.74137931     0.59887041     0.42564718
     0.74137931     0.66137041     0.42564718
     0.74137931     0.72387041     0.42564718
     0.74137931     0.78637041     0.42564718
     0.74137931     0.84887041     0.42564718
     0.74137931     0.91137041     0.42564718
     0.74137931     0.97387041     0.42564718
     0.77586207     0.03637041     0.42564718
     0.77586207     0.09887041     0.42564718
     0.77586207     0.16137041     0.42564718
     0.77586207     0.22387041     0.42564718
     0.77586207     0.28637041     0.42564718
     0.77586207     0.34887041     0.42564718
     0.77586207     0.41137041     0.42564718
     0.77586207     0.47387041     0.42564718
     0.77586207     0.53637041     0.42564718
     0.77586207     0.59887041     0.42564718
     0.77586207     0.66137041     0.42564718
     0.77586207     0.72387041     0.42564718
     0.77586207     0.78637041     0.42564718
     0.77586207     0.84887041     0.42564718
     0.77586207     0.91137041     0.42564718
     0.77586207     0.97387041     0.42564718
     0.81034483     0.03637041     0.42564718
     0.81034483     0.09887041     0.42564718
     0.81034483     0.16137041     0.42564718
     0.81034483     0.22387041     0.42564718
     0.81034483     0.28637041     0.42564718
     0.81034483     0.34887041     0.42564718
     0.81034483     0.41137041     0.42564718
     0.81034483     0.47387041     0.42564718
     0.81034483     0.53637041     0.42564718
     0.81034483     0.59887041     0.42564718
     0.81034483     0.66137041     0.42564718
     0.81034483     0.72387041     0.42564718
     0.81034483     0.78637041     0.42564718
     0.81034483     0.84887041     0.42564718
     0.81034483     0.91137041     0.42564718
     0.81034483     0.97387041     0.42564718
     0.84482759     0.03637041     0.42564718
     0.84482759     0.09887041     0.42564718
     0.84482759     0.16137041     0.42564718
     0.84482759     0.22387041     0.42564718
     0.84482759     0.28637041     0.42564718
     0.84482759     0.34887041     0.42564718
     0.84482759     0.41137041     0.42564718
     0.84482759     0.47387041     0.42564718
     0.84482759     0.53637041     0.42564718
     0.84482759     0.59887041     0.42564718
     0.84482759     0.66137041     0.42564718
     0.84482759     0.72387041     0.42564718
     0.84482759     0.78637041     0.42564718
     0.84482759     0.84887041     0.42564718
     0.84482759     0.91137041     0.42564718
     0.84482759     0.97387041     0.42564718
     0.87931034     0.03637041     0.42564718
     0.87931034     0.09887041     0.42564718
     0.87931034     0.16137041     0.42564718
     0.87931034     0.22387041     0.42564718
     0.87931034     0.28637041     0.42564718
     0.87931034     0.34887041     0.42564718
     0.87931034     0.41137041     0.42564718
     0.87931034     0.47387041     0.42564718
     0.87931034     0.53637041     0.42564718
     0.87931034     0.59887041     0.42564718
     0.87931034     0.66137041     0.42564718
     0.87931034     0.72387041     0.42564718
     0.87931034     0.78637041     0.42564718
     0.87931034     0.84887041     0.42564718
     0.87931034     0.91137041     0.42564718
     0.87931034     0.97387041     0.42564718
     0.91379310     0.03637041     0.42564718
     0.91379310     0.09887041     0.42564718
     0.91379310     0.16137041     0.42564718
     0.91379310     0.22387041     0.42564718
     0.91379310     0.28637041     0.42564718
     0.91379310     0.34887041     0.42564718
     0.91379310     0.41137041     0.42564718
     0.91379310     0.47387041     0.42564718
     0.91379310     0.53637041     0.42564718
     0.91379310     0.59887041     0.42564718
     0.91379310     0.66137041     0.42564718
     0.91379310     0.72387041     0.42564718
     0.91379310     0.78637041     0.42564718
     0.91379310     0.84887041     0.42564718
     0.91379310     0.91137041     0.42564718
     0.91379310     0.97387041     0.42564718
     0.94827586     0.03637041     0.42564718
     0.94827586     0.09887041     0.42564718
     0.94827586     0.16137041     0.42564718
     0.94827586     0.22387041     0.42564718
     0.94827586     0.28637041     0.42564718
     0.94827586     0.34887041     0.42564718
     0.94827586     0.41137041     0.42564718
     0.94827586     0.47387041     0.42564718
     0.94827586     0.53637041     0.42564718
     0.94827586     0.59887041     0.42564718
     0.94827586     0.66137041     0.42564718
     0.94827586     0.72387041     0.42564718
     0.94827586     0.78637041     0.42564718
     0.94827586     0.84887041     0.42564718
     0.94827586     0.91137041     0.42564718
     0.94827586     0.97387041     0.42564718
     0.98275862     0.03637041     0.42564718
     0.98275862     0.09887041     0.42564718
     0.98275862     0.16137041     0.42564718
     0.98275862     0.22387041     0.42564718
     0.98275862     0.28637041     0.42564718
     0.98275862     0.34887041     0.42564718
     0.98275862     0.41137041     0.42564718
     0.98275862     0.47387041     0.42564718
     0.98275862     0.53637041     0.42564718
     0.98275862     0.59887041     0.42564718
     0.98275862     0.66137041     0.42564718
     0.98275862     0.72387041     0.42564718
     0.98275862     0.78637041     0.42564718
     0.98275862     0.84887041     0.42564718
     0.98275862     0.91137041     0.42564718
     0.98275862     0.97387041     0.42564718
     0.01724138     0.02609592     0.31941913
     0.01724138     0.08859592     0.31941913
     0.01724138     0.15109592     0.31941913
     0.01724138     0.21359592     0.31941913
     0.01724138     0.27609592     0.31941913
     0.01724138     0.33859592     0.31941913
     0.01724138     0.40109592     0.31941913
     0.01724138     0.46359592     0.31941913
     0.01724138     0.52609592     0.31941913
     0.01724138     0.58859592     0.31941913
     0.01724138     0.65109592     0.31941913
     0.01724138     0.71359592     0.31941913
     0.01724138     0.77609592     0.31941913
     0.01724138     0.83859592     0.31941913
     0.01724138     0.90109592     0.31941913
     0.01724138     0.96359592     0.31941913
     0.05172414     0.02609592     0.31941913
     0.05172414     0.08859592     0.31941913
     0.05172414     0.15109592     0.31941913
     0.05172414     0.21359592     0.31941913
     0.05172414     0.27609592     0.31941913
     0.05172414     0.33859592     0.31941913
     0.05172414     0.40109592     0.31941913
     0.05172414     0.46359592     0.31941913
     0.05172414     0.52609592     0.31941913
     0.05172414     0.58859592     0.31941913
     0.05172414     0.65109592     0.31941913
     0.05172414     0.71359592     0.31941913
     0.05172414     0.77609592     0.31941913
     0.05172414     0.83859592     0.31941913
     0.05172414     0.90109592     0.31941913
     0.05172414     0.96359592     0.31941913
     0.08620690     0.02609592     0.31941913
     0.08620690     0.08859592     0.31941913
     0.08620690     0.15109592     0.31941913
     0.08620690     0.21359592     0.31941913
     0.08620690     0.27609592     0.31941913
     0.08620690     0.33859592     0.31941913
     0.08620690     0.40109592     0.31941913
     0.08620690     0.46359592     0.31941913
     0.08620690     0.52609592     0.31941913
     0.08620690     0.58859592     0.31941913
     0.08620690     0.65109592     0.31941913
     0.08620690     0.71359592     0.31941913
     0.08620690     0.77609592     0.31941913
     0.08620690     0.83859592     0.31941913
     0.08620690     0.90109592     0.31941913
     0.08620690     0.96359592     0.31941913
     0.12068966     0.02609592     0.31941913
     0.12068966     0.08859592     0.31941913
     0.12068966     0.15109592     0.31941913
     0.12068966     0.21359592     0.31941913
     0.12068966     0.27609592     0.31941913
     0.12068966     0.33859592     0.31941913
     0.12068966     0.40109592     0.31941913
     0.12068966     0.46359592     0.31941913
     0.12068966     0.52609592     0.31941913
     0.12068966     0.58859592     0.31941913
     0.12068966     0.65109592     0.31941913
     0.12068966     0.71359592     0.31941913
     0.12068966     0.77609592     0.31941913
     0.12068966     0.83859592     0.31941913
     0.12068966     0.90109592     0.31941913
     0.12068966     0.96359592     0.31941913
     0.15517241     0.02609592     0.31941913
     0.15517241     0.08859592     0.31941913
     0.15517241     0.15109592     0.31941913
     0.15517241     0.21359592     0.31941913
     0.15517241     0.27609592     0.31941913
     0.15517241     0.33859592     0.31941913
     0.15517241     0.40109592     0.31941913
     0.15517241     0.46359592     0.31941913
     0.15517241     0.52609592     0.31941913
     0.15517241     0.58859592     0.31941913
     0.15517241     0.65109592     0.31941913
     0.15517241     0.71359592     0.31941913
     0.15517241     0.77609592     0.31941913
     0.15517241     0.83859592     0.31941913
     0.15517241     0.90109592     0.31941913
     0.15517241     0.96359592     0.31941913
     0.18965517     0.02609592     0.31941913
     0.18965517     0.08859592     0.31941913
     0.18965517     0.15109592     0.31941913
     0.18965517     0.21359592     0.31941913
     0.18965517     0.27609592     0.31941913
     0.18965517     0.33859592     0.31941913
     0.18965517     0.40109592     0.31941913
     0.18965517     0.46359592     0.31941913
     0.18965517     0.52609592     0.31941913
     0.18965517     0.58859592     0.31941913
     0.18965517     0.65109592     0.31941913
     0.18965517     0.71359592     0.31941913
     0.18965517     0.77609592     0.31941913
     0.18965517     0.83859592     0.31941913
     0.18965517     0.90109592     0.31941913
     0.18965517     0.96359592     0.31941913
     0.22413793     0.02609592     0.31941913
     0.22413793     0.08859592     0.31941913
     0.22413793     0.15109592     0.31941913
     0.22413793     0.21359592     0.31941913
     0.22413793     0.27609592     0.31941913
     0.22413793     0.33859592     0.31941913
     0.22413793     0.40109592     0.31941913
     0.22413793     0.46359592     0.31941913
     0.22413793     0.52609592     0.31941913
     0.22413793     0.58859592     0.31941913
     0.22413793     0.65109592     0.31941913
     0.22413793     0.71359592     0.31941913
     0.22413793     0.77609592     0.31941913
     0.22413793     0.83859592     0.31941913
     0.22413793     0.90109592     0.31941913
     0.22413793     0.96359592     0.31941913
     0.25862069     0.02609592     0.31941913
     0.25862069     0.08859592     0.31941913
     0.25862069     0.15109592     0.31941913
     0.25862069     0.21359592     0.31941913
     0.25862069     0.27609592     0.31941913
     0.25862069     0.33859592     0.31941913
     0.25862069     0.40109592     0.31941913
     0.25862069     0.46359592     0.31941913
     0.25862069     0.52609592     0.31941913
     0.25862069     0.58859592     0.31941913
     0.25862069     0.65109592     0.31941913
     0.25862069     0.71359592     0.31941913
     0.25862069     0.77609592     0.31941913
     0.25862069     0.83859592     0.31941913
     0.25862069     0.90109592     0.31941913
     0.25862069     0.96359592     0.31941913
     0.29310345     0.02609592     0.31941913
     0.29310345     0.08859592     0.31941913
     0.29310345     0.15109592     0.31941913
     0.29310345     0.21359592     0.31941913
     0.29310345     0.27609592     0.31941913
     0.29310345     0.33859592     0.31941913
     0.29310345     0.40109592     0.31941913
     0.29310345     0.46359592     0.31941913
     0.29310345     0.52609592     0.31941913
     0.29310345     0.58859592     0.31941913
     0.29310345     0.65109592     0.31941913
     0.29310345     0.71359592     0.31941913
     0.29310345     0.77609592     0.31941913
     0.29310345     0.83859592     0.31941913
     0.29310345     0.90109592     0.31941913
     0.29310345     0.96359592     0.31941913
     0.32758621     0.02609592     0.31941913
     0.32758621     0.08859592     0.31941913
     0.32758621     0.15109592     0.31941913
     0.32758621     0.21359592     0.31941913
     0.32758621     0.27609592     0.31941913
     0.32758621     0.33859592     0.31941913
     0.32758621     0.40109592     0.31941913
     0.32758621     0.46359592     0.31941913
     0.32758621     0.52609592     0.31941913
     0.32758621     0.58859592     0.31941913
     0.32758621     0.65109592     0.31941913
     0.32758621     0.71359592     0.31941913
     0.32758621     0.77609592     0.31941913
     0.32758621     0.83859592     0.31941913
     0.32758621     0.90109592     0.31941913
     0.32758621     0.96359592     0.31941913
     0.36206897     0.02609592     0.31941913
     0.36206897     0.08859592     0.31941913
     0.36206897     0.15109592     0.31941913
     0.36206897     0.21359592     0.31941913
     0.36206897     0.27609592     0.31941913
     0.36206897     0.33859592     0.31941913
     0.36206897     0.40109592     0.31941913
     0.36206897     0.46359592     0.31941913
     0.36206897     0.52609592     0.31941913
     0.36206897     0.58859592     0.31941913
     0.36206897     0.65109592     0.31941913
     0.36206897     0.71359592     0.31941913
     0.36206897     0.77609592     0.31941913
     0.36206897     0.83859592     0.31941913
     0.36206897     0.90109592     0.31941913
     0.36206897     0.96359592     0.31941913
     0.39655172     0.02609592     0.31941913
     0.39655172     0.08859592     0.31941913
     0.39655172     0.15109592     0.31941913
     0.39655172     0.21359592     0.31941913
     0.39655172     0.27609592     0.31941913
     0.39655172     0.33859592     0.31941913
     0.39655172     0.40109592     0.31941913