Generated by Twist2D
    1.0
      49.45499452       0.00000000       0.00000000
       0.00000000      35.44389063       0.00000000
       0.00000000       0.00000000      20.00000000
    P
    964
Direct
     0.03333333     0.07274082     0.42564718
     0.03333333     0.19774082     0.42564718
     0.03333333     0.32274082     0.42564718
     0.03333333     0.44774082     0.42564718
     0.03333333     0.57274082     0.42564718
     0.03333333     0.69774082     0.42564718
     0.03333333     0.82274082     0.42564718
     0.03333333     0.94774082     0.42564718
     0.10000000     0.07274082     0.42564718
     0.10000000     0.19774082     0.42564718
     0.10000000     0.32274082     0.42564718
     0.10000000     0.44774082     0.42564718
     0.10000000     0.57274082     0.42564718
     0.10000000     0.69774082     0.42564718
     0.10000000     0.82274082     0.42564718
     0.10000000     0.94774082     0.42564718
     0.16666667     0.07274082     0.42564718
     0.16666667     0.19774082     0.42564718
     0.16666667     0.32274082     0.42564718
     0.16666667     0.44774082     0.42564718
     0.16666667     0.57274082     0.42564718
     0.16666667     0.69774082     0.42564718
     0.16666667     0.82274082     0.42564718
     0.16666667     0.94774082     0.42564718
     0.23333333     0.07274082     0.42564718
     0.23333333     0.19774082     0.42564718
     0.23333333     0.32274082     0.42564718
     0.23333333     0.44774082     0.42564718
     0.23333333     0.57274082     0.42564718
     0.23333333     0.69774082     0.42564718
     0.23333333     0.82274082     0.42564718
     0.23333333     0.94774082     0.42564718
     0.30000000     0.07274082     0.42564718
     0.30000000     0.19774082     0.42564718
     0.30000000     0.32274082     0.42564718
     0.30000000     0.44774082     0.42564718
     0.30000000     0.57274082     0.42564718
     0.30000000     0.69774082     0.42564718
     0.30000000     0.82274082     0.42564718
     0.30000000     0.94774082     0.42564718
     0.36666667     0.07274082     0.42564718
     0.36666667     0.19774082     0.42564718
     0.36666667     0.32274082     0.42564718
     0.36666667     0.44774082     0.42564718
     0.36666667     0.57274082     0.42564718
     0.36666667     0.69774082     0.42564718
     0.36666667     0.82274082     0.42564718
     0.36666667     0.94774082     0.42564718
     0.43333333     0.07274082     0.42564718
     0.43333333     0.19774082     0.42564718
     0.43333333     0.32274082     0.42564718
     0.43333333     0.44774082     0.42564718
     0.43333333     0.57274082     0.42564718
     0.43333333     0.69774082     0.42564718
     0.43333333     0.82274082     0.42564718
     0.43333333     0.94774082     0.42564718
     0.50000000     0.07274082     0.42564718
     0.50000000     0.19774082     0.42564718
     0.50000000     0.32274082     0.42564718
     0.50000000     0.44774082     0.42564718
     0.50000000     0.57274082     0.42564718
     0.50000000     0.69774082     0.42564718
     0.50000000     0.82274082     0.42564718
     0.50000000     0.94774082     0.42564718
     0.56666667     0.07274082     0.42564718
     0.56666667     0.19774082     0.42564718
     0.56666667     0.32274082     0.42564718
     0.56666667     0.44774082     0.42564718
     0.56666667     0.57274082     0.42564718
     0.56666667     0.69774082     0.42564718
     0.56666667     0.82274082     0.42564718
     0.56666667     0.94774082     0.42564718
     0.63333333     0.07274082     0.42564718
     0.63333333     0.19774082     0.42564718
     0.63333333     0.32274082     0.42564718
     0.63333333     0.44774082     0.42564718
     0.63333333     0.57274082     0.42564718
     0.63333333     0.69774082     0.42564718
     0.63333333     0.82274082     0.42564718
     0.63333333     0.94774082     0.42564718
     0.70000000     0.07274082     0.42564718
     0.70000000     0.19774082     0.42564718
     0.70000000     0.32274082     0.42564718
     0.70000000     0.44774082     0.42564718
     0.70000000     0.57274082     0.42564718
     0.70000000     0.69774082     0.42564718
     0.70000000     0.82274082     0.42564718
     0.70000000     0.94774082     0.42564718
     0.76666667     0.07274082     0.42564718
     0.76666667     0.19774082     0.42564718
     0.76666667     0.32274082     0.42564718
     0.76666667     0.44774082     0.42564718
     0.76666667     0.57274082     0.42564718
     0.76666667     0.69774082     0.42564718
     0.76666667     0.82274082     0.42564718
     0.76666667     0.94774082     0.42564718
     0.83333333     0.07274082     0.42564718
     0.83333333     0.19774082     0.42564718
     0.83333333     0.32274082     0.42564718
     0.83333333     0.44774082     0.42564718
     0.83333333     0.57274082     0.42564718
     0.83333333     0.69774082     0.42564718
     0.83333333     0.82274082     0.42564718
     0.83333333     0.94774082     0.42564718
     0.90000000     0.07274082     0.42564718
     0.90000000     0.19774082     0.42564718
     0.90000000     0.32274082     0.42564718
     0.90000000     0.44774082     0.42564718
     0.90000000     0.57274082     0.42564718
     0.90000000     0.69774082     0.42564718
     0.90000000     0.82274082     0.42564718
     0.90000000     0.94774082     0.42564718
     0.96666667     0.07274082     0.42564718
     0.96666667     0.19774082     0.42564718
     0.96666667     0.32274082     0.42564718
     0.96666667     0.44774082     0.42564718
     0.96666667     0.57274082     0.42564718
     0.96666667     0.69774082     0.42564718
     0.96666667     0.82274082     0.42564718
     0.96666667     0.94774082     0.42564718
     0.03333333     0.05219185     0.31941913
     0.03333333     0.17719185     0.31941913
     0.03333333     0.30219185     0.31941913
     0.03333333     0.42719185     0.31941913
     0.03333333     0.55219185     0.31941913
     0.03333333     0.67719185     0.31941913
     0.03333333     0.80219185     0.31941913
     0.03333333     0.92719185     0.31941913
     0.10000000     0.05219185     0.31941913
     0.10000000     0.17719185     0.31941913
     0.10000000     0.30219185     0.31941913
     0.10000000     0.42719185     0.31941913
     0.10000000     0.55219185     0.31941913
     0.10000000     0.67719185     0.31941913
     0.10000000     0.80219185     0.31941913
     0.10000000     0.92719185     0.31941913
     0.16666667     0.05219185     0.31941913
     0.16666667     0.17719185     0.31941913
     0.16666667     0.30219185     0.31941913
     0.16666667     0.42719185     0.31941913
     0.16666667     0.55219185     0.31941913
     0.16666667     0.67719185     0.31941913
     0.16666667     0.80219185     0.31941913
     0.16666667     0.92719185     0.31941913
     0.23333333     0.05219185     0.31941913
     0.23333333     0.17719185     0.31941913
     0.23333333     0.30219185     0.31941913
     0.23333333     0.42719185     0.31941913
     0.23333333     0.55219185     0.31941913
     0.23333333     0.67719185     0.31941913
     0.23333333     0.80219185     0.31941913
     0.23333333     0.92719185     0.31941913
     0.30000000     0.05219185     0.31941913
     0.30000000     0.17719185     0.31941913
     0.30000000     0.30219185     0.31941913
     0.30000000     0.42719185     0.31941913
     0.30000000     0.55219185     0.31941913
     0.30000000     0.67719185     0.31941913
     0.30000000     0.80219185     0.31941913
     0.30000000     0.92719185     0.31941913
     0.36666667     0.05219185     0.31941913
     0.36666667     0.17719185     0.31941913
     0.36666667     0.30219185     0.31941913
     0.36666667     0.42719185     0.31941913
     0.36666667     0.55219185     0.31941913
     0.36666667     0.67719185     0.31941913
     0.36666667     0.80219185     0.31941913
     0.36666667     0.92719185     0.31941913
     0.43333333     0.05219185     0.31941913
     0.43333333     0.17719185     0.31941913
     0.43333333     0.30219185     0.31941913
     0.43333333     0.42719185     0.31941913
     0.43333333     0.55219185     0.31941913
     0.43333333     0.67719185     0.31941913
     0.43333333     0.80219185     0.31941913
     0.43333333     0.92719185     0.31941913
     0.50000000     0.05219185     0.31941913
     0.50000000     0.17719185     0.31941913
     0.50000000     0.30219185     0.31941913
     0.50000000     0.42719185     0.31941913
     0.50000000     0.55219185     0.31941913
     0.50000000     0.67719185     0.31941913
     0.50000000     0.80219185     0.31941913
     0.50000000     0.92719185     0.31941913
     0.56666667     0.05219185     0.31941913
     0.56666667     0.17719185     0.31941913
     0.56666667     0.30219185     0.31941913
     0.56666667     0.42719185     0.31941913
     0.56666667     0.55219185     0.31941913
     0.56666667     0.67719185     0.31941913
     0.56666667     0.80219185     0.31941913
     0.56666667     0.92719185     0.31941913
     0.63333333     0.05219185     0.31941913
     0.63333333     0.17719185     0.31941913
     0.63333333     0.30219185     0.31941913
     0.63333333     0.42719185     0.31941913
     0.63333333     0.55219185     0.31941913
     0.63333333     0.67719185     0.31941913
     0.63333333     0.80219185     0.31941913
     0.63333333     0.92719185     0.31941913
     0.70000000     0.05219185     0.31941913
     0.70000000     0.17719185     0.31941913
     0.70000000     0.30219185     0.31941913
     0.70000000     0.42719185     0.31941913
     0.70000000     0.55219185     0.31941913
     0.70000000     0.67719185     0.31941913
     0.70000000     0.80219185     0.31941913
     0.70000000     0.92719185     0.31941913
     0.76666667     0.05219185     0.31941913
     0.76666667     0.17719185     0.31941913
     0.76666667     0.30219185     0.31941913
     0.76666667     0.42719185     0.31941913
     0.76666667     0.55219185     0.31941913
     0.76666667     0.67719185     0.31941913
     0.76666667     0.80219185     0.31941913
     0.76666667     0.92719185     0.31941913
     0.83333333     0.05219185     0.31941913
     0.83333333     0.17719185     0.31941913
     0.83333333     0.30219185     0.31941913
     0.83333333     0.42719185     0.31941913
     0.83333333     0.55219185     0.31941913
     0.83333333     0.67719185     0.31941913
     0.83333333     0.80219185     0.31941913
     0.83333333     0.92719185     0.31941913
     0.90000000     0.05219185     0.31941913
     0.90000000     0.17719185     0.31941913
     0.90000000     0.30219185     0.31941913
     0.90000000     0.42719185     0.31941913
     0.90000000     0.55219185     0.31941913
     0.90000000     0.67719185     0.31941913
     0.90000000     0.80219185     0.31941913
     0.90000000     0.92719185     0.31941913
     0.96666667     0.05219185     0.31941913
     0.96666667     0.17719185     0.31941913
     0.96666667     0.30219185     0.31941913
     0.96666667     0.42719185     0.31941913
     0.96666667     0.55219185     0.31941913
     0.96666667     0.67719185     0.31941913
     0.96666667     0.80219185     0.31941913
     0.96666667     0.92719185     0.31941913
     0.06666667     0.01030815     0.31941913
     0.06666667     0.13530815     0.31941913
     0.06666667     0.26030815     0.31941913
     0.06666667     0.38530815     0.31941913
     0.06666667     0.51030815     0.31941913
     0.06666667     0.63530815     0.31941913
     0.06666667     0.76030815     0.31941913
     0.06666667     0.88530815     0.31941913
     0.13333333     0.01030815     0.31941913
     0.13333333     0.13530815     0.31941913
     0.13333333     0.26030815     0.31941913
     0.13333333     0.38530815     0.31941913
     0.13333333     0.51030815     0.31941913
     0.13333333     0.63530815     0.31941913
     0.13333333     0.76030815     0.31941913
     0.13333333     0.88530815     0.31941913
     0.20000000     0.01030815     0.31941913
     0.20000000     0.13530815     0.31941913
     0.20000000     0.26030815     0.31941913
     0.20000000     0.38530815     0.31941913
     0.20000000     0.51030815     0.31941913
     0.20000000     0.63530815     0.31941913
     0.20000000     0.76030815     0.31941913
     0.20000000     0.88530815     0.31941913
     0.26666667     0.01030815     0.31941913
     0.26666667     0.13530815     0.31941913
     0.26666667     0.26030815     0.31941913
     0.26666667     0.38530815     0.31941913
     0.26666667     0.51030815     0.31941913
     0.26666667     0.63530815     0.31941913
     0.26666667     0.76030815     0.31941913
     0.26666667     0.88530815     0.31941913
     0.33333333     0.01030815     0.31941913
     0.33333333     0.13530815     0.31941913
     0.33333333     0.26030815     0.31941913
     0.33333333     0.38530815     0.31941913
     0.33333333     0.51030815     0.31941913
     0.33333333     0.63530815     0.31941913
     0.33333333     0.76030815     0.31941913
     0.33333333     0.88530815     0.31941913
     0.40000000     0.01030815     0.31941913
     0.40000000     0.13530815     0.31941913
     0.40000000     0.26030815     0.31941913
     0.40000000     0.38530815     0.31941913
     0.40000000     0.51030815     0.31941913
     0.40000000     0.63530815     0.31941913
     0.40000000     0.76030815     0.31941913
     0.40000000     0.88530815     0.31941913
     0.46666667     0.01030815     0.31941913
     0.46666667     0.13530815     0.31941913
     0.46666667     0.26030815     0.31941913
     0.46666667     0.38530815     0.31941913
     0.46666667     0.51030815     0.31941913
     0.46666667     0.63530815     0.31941913
     0.46666667     0.76030815     0.31941913
     0.46666667     0.88530815     0.31941913
     0.53333333     0.01030815     0.31941913
     0.53333333     0.13530815     0.31941913
     0.53333333     0.26030815     0.31941913
     0.53333333     0.38530815     0.31941913
     0.53333333     0.51030815     0.31941913
     0.53333333     0.63530815     0.31941913
     0.53333333     0.76030815     0.31941913
     0.53333333     0.88530815     0.31941913
     0.60000000     0.01030815     0.31941913
     0.60000000     0.13530815     0.31941913
     0.60000000     0.26030815     0.31941913
     0.60000000     0.38530815     0.31941913
     0.60000000     0.51030815     0.31941913
     0.60000000     0.63530815     0.31941913
     0.60000000     0.76030815     0.31941913
     0.60000000     0.88530815     0.31941913
     0.66666667     0.01030815     0.31941913
     0.66666667     0.13530815     0.31941913
     0.66666667     0.26030815     0.31941913
     0.66666667     0.38530815     0.31941913
     0.66666667     0.51030815     0.31941913
     0.66666667     0.63530815     0.31941913
     0.66666667     0.76030815     0.31941913
     0.66666667     0.88530815     0.31941913
     0.73333333     0.01030815     0.31941913
     0.73333333     0.13530815     0.31941913
     0.73333333     0.26030815     0.31941913
     0.73333333     0.38530815     0.31941913
     0.73333333     0.51030815     0.31941913
     0.73333333     0.63530815     0.31941913
     0.73333333     0.76030815     0.31941913
     0.73333333     0.88530815     0.31941913
     0.80000000     0.01030815     0.31941913
     0.80000000     0.13530815     0.31941913
     0.80000000     0.26030815     0.31941913
     0.80000000     0.38530815     0.31941913
     0.80000000     0.51030815     0.31941913
     0.80000000     0.63530815     0.31941913
     0.80000000     0.76030815     0.31941913
     0.80000000     0.88530815     0.31941913
     0.86666667     0.01030815     0.31941913
     0.86666667     0.13530815     0.31941913
     0.86666667     0.26030815     0.31941913
     0.86666667     0.38530815     0.31941913
     0.86666667     0.51030815     0.31941913
     0.86666667     0.63530815     0.31941913
     0.86666667     0.76030815     0.31941913
     0.86666667     0.88530815     0.31941913
     0.93333333     0.01030815     0.31941913
     0.93333333     0.13530815     0.31941913
     0.93333333     0.26030815     0.31941913
     0.93333333     0.38530815     0.31941913
     0.93333333     0.51030815     0.31941913
     0.93333333     0.63530815     0.31941913
     0.93333333     0.76030815     0.31941913
     0.93333333     0.88530815     0.31941913
     1.00000000     0.01030815     0.31941913
     1.00000000     0.13530815     0.31941913
     1.00000000     0.26030815     0.31941913
     1.00000000     0.38530815     0.31941913
     1.00000000     0.51030815     0.31941913
     1.00000000     0.63530815     0.31941913
     1.00000000     0.76030815     0.31941913
     1.00000000     0.88530815     0.31941913
     0.06666667     0.11475918     0.42564718
     0.06666667     0.23975918     0.42564718
     0.06666667     0.36475918     0.42564718
     0.06666667     0.48975918     0.42564718
     0.06666667     0.61475918     0.42564718
     0.06666667     0.73975918     0.42564718
     0.06666667     0.86475918     0.42564718
     0.06666667     0.98975918     0.42564718
     0.13333333     0.11475918     0.42564718
     0.13333333     0.23975918     0.42564718
     0.13333333     0.36475918     0.42564718
     0.13333333     0.48975918     0.42564718
     0.13333333     0.61475918     0.42564718
     0.13333333     0.73975918     0.42564718
     0.13333333     0.86475918     0.42564718
     0.13333333     0.98975918     0.42564718
     0.20000000     0.11475918     0.42564718
     0.20000000     0.23975918     0.42564718
     0.20000000     0.36475918     0.42564718
     0.20000000     0.48975918     0.42564718
     0.20000000     0.61475918     0.42564718
     0.20000000     0.73975918     0.42564718
     0.20000000     0.86475918     0.42564718
     0.20000000     0.98975918     0.42564718
     0.26666667     0.11475918     0.42564718
     0.26666667     0.23975918     0.42564718
     0.26666667     0.36475918     0.42564718
     0.26666667     0.48975918     0.42564718
     0.26666667     0.61475918     0.42564718
     0.26666667     0.73975918     0.42564718
     0.26666667     0.86475918     0.42564718
     0.26666667     0.98975918     0.42564718
     0.33333333     0.11475918     0.42564718
     0.33333333     0.23975918     0.42564718
     0.33333333     0.36475918     0.42564718
     0.33333333     0.48975918     0.42564718
     0.33333333     0.61475918     0.42564718
     0.33333333     0.73975918     0.42564718
     0.33333333     0.86475918     0.42564718
     0.33333333     0.98975918     0.42564718
     0.40000000     0.11475918     0.42564718
     0.40000000     0.23975918     0.42564718
     0.40000000     0.36475918     0.42564718
     0.40000000     0.48975918     0.42564718
     0.40000000     0.61475918     0.42564718
     0.40000000     0.73975918     0.42564718
     0.40000000     0.86475918     0.42564718
     0.40000000     0.98975918     0.42564718
     0.46666667     0.11475918     0.42564718
     0.46666667     0.23975918     0.42564718
     0.46666667     0.36475918     0.42564718
     0.46666667     0.48975918     0.42564718
     0.46666667     0.61475918     0.42564718
     0.46666667     0.73975918     0.42564718
     0.46666667     0.86475918     0.42564718
     0.46666667     0.98975918     0.42564718
     0.53333333     0.11475918     0.42564718
     0.53333333     0.23975918     0.42564718
     0.53333333     0.36475918     0.42564718
     0.53333333     0.48975918     0.42564718
     0.53333333     0.61475918     0.42564718
     0.53333333     0.73975918     0.42564718
     0.53333333     0.86475918     0.42564718
     0.53333333     0.98975918     0.42564718
     0.60000000     0.11475918     0.42564718
     0.60000000     0.23975918     0.42564718
     0.60000000     0.36475918     0.42564718
     0.60000000     0.48975918     0.42564718
     0.60000000     0.61475918     0.42564718
     0.60000000     0.73975918     0.42564718
     0.60000000     0.86475918     0.42564718
     0.60000000     0.98975918     0.42564718
     0.66666667     0.11475918     0.42564718
     0.66666667     0.23975918     0.42564718
     0.66666667     0.36475918     0.42564718
     0.66666667     0.48975918     0.42564718
     0.66666667     0.61475918     0.42564718
     0.66666667     0.73975918     0.42564718
     0.66666667     0.86475918     0.42564718
     0.66666667     0.98975918     0.42564718
     0.73333333     0.11475918     0.42564718
     0.73333333     0.23975918     0.42564718
     0.73333333     0.36475918     0.42564718
     0.73333333     0.48975918     0.42564718
     0.73333333     0.61475918     0.42564718
     0.73333333     0.73975918     0.42564718
     0.73333333     0.86475918     0.42564718
     0.73333333     0.98975918     0.42564718
     0.80000000     0.11475918     0.42564718
     0.80000000     0.23975918     0.42564718
     0.80000000     0.36475918     0.42564718
     0.80000000     0.48975918     0.42564718
     0.80000000     0.61475918     0.42564718
     0.80000000     0.73975918     0.42564718
     0.80000000     0.86475918     0.42564718
     0.80000000     0.98975918     0.42564718
     0.86666667     0.11475918     0.42564718
     0.86666667     0.23975918     0.42564718
     0.86666667     0.36475918     0.42564718
     0.86666667     0.48975918     0.42564718
     0.86666667     0.61475918     0.42564718
     0.86666667     0.73975918     0.42564718
     0.86666667     0.86475918     0.42564718
     0.86666667     0.98975918     0.42564718
     0.93333333     0.11475918     0.42564718
     0.93333333     0.23975918     0.42564718
     0.93333333     0.36475918     0.42564718
     0.93333333     0.48975918     0.42564718
     0.93333333     0.61475918     0.42564718
     0.93333333     0.73975918     0.42564718
     0.93333333     0.86475918     0.42564718
     0.93333333     0.98975918     0.42564718
     1.00000000     0.11475918     0.42564718
     1.00000000     0.23975918     0.42564718
     1.00000000     0.36475918     0.42564718
     1.00000000     0.48975918     0.42564718
     1.00000000     0.61475918     0.42564718
     1.00000000     0.73975918     0.42564718
     1.00000000     0.86475918     0.42564718
     1.00000000     0.98975918     0.42564718
    -0.00480931     0.07213965     0.68057335
     0.06130639     0.08040411     0.68057335
     0.05304193     0.20437106     0.68057335
     0.04477747     0.32833800     0.68057335
     0.03651300     0.45230494     0.68057335
     0.02824854     0.57627188     0.68057335
     0.01998408     0.70023882     0.68057335
     0.01171962     0.82420577     0.68057335
     0.00345515     0.94817271     0.68057335
     0.12742209     0.08866858     0.68057335
     0.11915763     0.21263552     0.68057335
     0.11089317     0.33660246     0.68057335
     0.10262871     0.46056940     0.68057335
     0.09436424     0.58453635     0.68057335
     0.08609978     0.70850329     0.68057335
     0.07783532     0.83247023     0.68057335
     0.06957086     0.95643717     0.68057335
     0.19353780     0.09693304     0.68057335
     0.18527333     0.22089998     0.68057335
     0.17700887     0.34486692     0.68057335
     0.16874441     0.46883387     0.68057335
     0.16047995     0.59280081     0.68057335
     0.15221548     0.71676775     0.68057335
     0.14395102     0.84073469     0.68057335
     0.13568656     0.96470163     0.68057335
     0.25965350     0.10519750     0.68057335
     0.25138904     0.22916444     0.68057335
     0.24312457     0.35313139     0.68057335
     0.23486011     0.47709833     0.68057335
     0.22659565     0.60106527     0.68057335
     0.21833119     0.72503221     0.68057335
     0.21006672     0.84899916     0.68057335
     0.20180226     0.97296610     0.68057335
     0.32576920     0.11346197     0.68057335
     0.31750474     0.23742891     0.68057335
     0.30924028     0.36139585     0.68057335
     0.30097581     0.48536279     0.68057335
     0.29271135     0.60932973     0.68057335
     0.28444689     0.73329668     0.68057335
     0.27618243     0.85726362     0.68057335
     0.26791796     0.98123056     0.68057335
     0.39188490     0.12172643     0.68057335
     0.38362044     0.24569337     0.68057335
     0.37535598     0.36966031     0.68057335
     0.36709152     0.49362725     0.68057335
     0.35882705     0.61759420     0.68057335
     0.35056259     0.74156114     0.68057335
     0.34229813     0.86552808     0.68057335
     0.33403367     0.98949502     0.68057335
     0.45800061     0.12999089     0.68057335
     0.44973614     0.25395783     0.68057335
     0.44147168     0.37792478     0.68057335
     0.43320722     0.50189172     0.68057335
     0.42494276     0.62585866     0.68057335
     0.41667829     0.74982560     0.68057335
     0.40841383     0.87379254     0.68057335
     0.40014937     0.99775949     0.68057335
     0.52411631     0.13825535     0.68057335
     0.51585185     0.26222230     0.68057335
     0.50758738     0.38618924     0.68057335
     0.49932292     0.51015618     0.68057335
     0.49105846     0.63412312     0.68057335
     0.48279400     0.75809006     0.68057335
     0.47452953     0.88205701     0.68057335
     0.46626507     1.00602395     0.68057335
     0.59023201     0.14651982     0.68057335
     0.58196755     0.27048676     0.68057335
     0.57370309     0.39445370     0.68057335
     0.56543862     0.51842064     0.68057335
     0.55717416     0.64238759     0.68057335
     0.54890970     0.76635453     0.68057335
     0.54064524     0.89032147     0.68057335
     0.53238077     1.01428841     0.68057335
     0.65634771     0.15478428     0.68057335
     0.64808325     0.27875122     0.68057335
     0.63981879     0.40271816     0.68057335
     0.63155433     0.52668511     0.68057335
     0.62328986     0.65065205     0.68057335
     0.61502540     0.77461899     0.68057335
     0.60676094     0.89858593     0.68057335
     0.59849648     1.02255287     0.68057335
     0.72246342     0.16304874     0.68057335
     0.71419895     0.28701568     0.68057335
     0.70593449     0.41098263     0.68057335
     0.69767003     0.53494957     0.68057335
     0.68940557     0.65891651     0.68057335
     0.68114110     0.78288345     0.68057335
     0.67287664     0.90685040     0.68057335
     0.66461218     1.03081734     0.68057335
     0.78857912     0.17131321     0.68057335
     0.78031466     0.29528015     0.68057335
     0.77205019     0.41924709     0.68057335
     0.76378573     0.54321403     0.68057335
     0.75552127     0.66718097     0.68057335
     0.74725681     0.79114792     0.68057335
     0.73899234     0.91511486     0.68057335
     0.73072788     1.03908180     0.68057335
     0.85469482     0.17957767     0.68057335
     0.84643036     0.30354461     0.68057335
     0.83816590     0.42751155     0.68057335
     0.82990143     0.55147849     0.68057335
     0.82163697     0.67544544     0.68057335
     0.81337251     0.79941238     0.68057335
     0.80510805     0.92337932     0.68057335
     0.79684358     1.04734626     0.68057335
     0.92081052     0.18784213     0.68057335
     0.91254606     0.31180907     0.68057335
     0.90428160     0.43577601     0.68057335
     0.89601714     0.55974296     0.68057335
     0.88775267     0.68370990     0.68057335
     0.87948821     0.80767684     0.68057335
     0.87122375     0.93164378     0.68057335
     0.86295928     1.05561073     0.68057335
     0.98692623     0.19610659     0.68057335
     0.97866176     0.32007354     0.68057335
     0.97039730     0.44404048     0.68057335
     0.96213284     0.56800742     0.68057335
     0.95386838     0.69197436     0.68057335
     0.94560391     0.81594130     0.68057335
     0.93733945     0.93990825     0.68057335
     0.92907499     1.06387519     0.68057335
    -0.00345070     0.05176051     0.57434529
     0.06266500     0.06002497     0.57434529
     0.05440054     0.18399192     0.57434529
     0.04613608     0.30795886     0.57434529
     0.03787161     0.43192580     0.57434529
     0.02960715     0.55589274     0.57434529
     0.02134269     0.67985969     0.57434529
     0.01307822     0.80382663     0.57434529
     0.00481376     0.92779357     0.57434529
     0.12878070     0.06828944     0.57434529
     0.12051624     0.19225638     0.57434529
     0.11225178     0.31622332     0.57434529
     0.10398732     0.44019026     0.57434529
     0.09572285     0.56415721     0.57434529
     0.08745839     0.68812415     0.57434529
     0.07919393     0.81209109     0.57434529
     0.07092946     0.93605803     0.57434529
     0.19489641     0.07655390     0.57434529
     0.18663194     0.20052084     0.57434529
     0.17836748     0.32448778     0.57434529
     0.17010302     0.44845473     0.57434529
     0.16183856     0.57242167     0.57434529
     0.15357409     0.69638861     0.57434529
     0.14530963     0.82035555     0.57434529
     0.13704517     0.94432250     0.57434529
     0.26101211     0.08481836     0.57434529
     0.25274765     0.20878531     0.57434529
     0.24448318     0.33275225     0.57434529
     0.23621872     0.45671919     0.57434529
     0.22795426     0.58068613     0.57434529
     0.21968980     0.70465307     0.57434529
     0.21142533     0.82862002     0.57434529
     0.20316087     0.95258696     0.57434529
     0.32712781     0.09308283     0.57434529
     0.31886335     0.21704977     0.57434529
     0.31059889     0.34101671     0.57434529
     0.30233442     0.46498365     0.57434529
     0.29406996     0.58895059     0.57434529
     0.28580550     0.71291754     0.57434529
     0.27754103     0.83688448     0.57434529
     0.26927657     0.96085142     0.57434529
     0.39324351     0.10134729     0.57434529
     0.38497905     0.22531423     0.57434529
     0.37671459     0.34928117     0.57434529
     0.36845013     0.47324812     0.57434529
     0.36018566     0.59721506     0.57434529