Generated by Twist2D
    1.0
      65.93999270       0.00000000       0.00000000
       0.00000000      48.73534962       0.00000000
       0.00000000       0.00000000      20.00000000
    P
    1764
Direct
     0.02500000     0.05290241     0.42564718
     0.02500000     0.14381150     0.42564718
     0.02500000     0.23472059     0.42564718
     0.02500000     0.32562968     0.42564718
     0.02500000     0.41653877     0.42564718
     0.02500000     0.50744787     0.42564718
     0.02500000     0.59835696     0.42564718
     0.02500000     0.68926605     0.42564718
     0.02500000     0.78017514     0.42564718
     0.02500000     0.87108423     0.42564718
     0.02500000     0.96199332     0.42564718
     0.07500000     0.05290241     0.42564718
     0.07500000     0.14381150     0.42564718
     0.07500000     0.23472059     0.42564718
     0.07500000     0.32562968     0.42564718
     0.07500000     0.41653877     0.42564718
     0.07500000     0.50744787     0.42564718
     0.07500000     0.59835696     0.42564718
     0.07500000     0.68926605     0.42564718
     0.07500000     0.78017514     0.42564718
     0.07500000     0.87108423     0.42564718
     0.07500000     0.96199332     0.42564718
     0.12500000     0.05290241     0.42564718
     0.12500000     0.14381150     0.42564718
     0.12500000     0.23472059     0.42564718
     0.12500000     0.32562968     0.42564718
     0.12500000     0.41653877     0.42564718
     0.12500000     0.50744787     0.42564718
     0.12500000     0.59835696     0.42564718
     0.12500000     0.68926605     0.42564718
     0.12500000     0.78017514     0.42564718
     0.12500000     0.87108423     0.42564718
     0.12500000     0.96199332     0.42564718
     0.17500000     0.05290241     0.42564718
     0.17500000     0.14381150     0.42564718
     0.17500000     0.23472059     0.42564718
     0.17500000     0.32562968     0.42564718
     0.17500000     0.41653877     0.42564718
     0.17500000     0.50744787     0.42564718
     0.17500000     0.59835696     0.42564718
     0.17500000     0.68926605     0.42564718
     0.17500000     0.78017514     0.42564718
     0.17500000     0.87108423     0.42564718
     0.17500000     0.96199332     0.42564718
     0.22500000     0.05290241     0.42564718
     0.22500000     0.14381150     0.42564718
     0.22500000     0.23472059     0.42564718
     0.22500000     0.32562968     0.42564718
     0.22500000     0.41653877     0.42564718
     0.22500000     0.50744787     0.42564718
     0.22500000     0.59835696     0.42564718
     0.22500000     0.68926605     0.42564718
     0.22500000     0.78017514     0.42564718
     0.22500000     0.87108423     0.42564718
     0.22500000     0.96199332     0.42564718
     0.27500000     0.05290241     0.42564718
     0.27500000     0.14381150     0.42564718
     0.27500000     0.23472059     0.42564718
     0.27500000     0.32562968     0.42564718
     0.27500000     0.41653877     0.42564718
     0.27500000     0.50744787     0.42564718
     0.27500000     0.59835696     0.42564718
     0.27500000     0.68926605     0.42564718
     0.27500000     0.78017514     0.42564718
     0.27500000     0.87108423     0.42564718
     0.27500000     0.96199332     0.42564718
     0.32500000     0.05290241     0.42564718
     0.32500000     0.14381150     0.42564718
     0.32500000     0.23472059     0.42564718
     0.32500000     0.32562968     0.42564718
     0.32500000     0.41653877     0.42564718
     0.32500000     0.50744787     0.42564718
     0.32500000     0.59835696     0.42564718
     0.32500000     0.68926605     0.42564718
     0.32500000     0.78017514     0.42564718
     0.32500000     0.87108423     0.42564718
     0.32500000     0.96199332     0.42564718
     0.37500000     0.05290241     0.42564718
     0.37500000     0.14381150     0.42564718
     0.37500000     0.23472059     0.42564718
     0.37500000     0.32562968     0.42564718
     0.37500000     0.41653877     0.42564718
     0.37500000     0.50744787     0.42564718
     0.37500000     0.59835696     0.42564718
     0.37500000     0.68926605     0.42564718
     0.37500000     0.78017514     0.42564718
     0.37500000     0.87108423     0.42564718
     0.37500000     0.96199332     0.42564718
     0.42500000     0.05290241     0.42564718
     0.42500000     0.14381150     0.42564718
     0.42500000     0.23472059     0.42564718
     0.42500000     0.32562968     0.42564718
     0.42500000     0.41653877     0.42564718
     0.42500000     0.50744787     0.42564718
     0.42500000     0.59835696     0.42564718
     0.42500000     0.68926605     0.42564718
     0.42500000     0.78017514     0.42564718
     0.42500000     0.87108423     0.42564718
     0.42500000     0.96199332     0.42564718
     0.47500000     0.05290241     0.42564718
     0.47500000     0.14381150     0.42564718
     0.47500000     0.23472059     0.42564718
     0.47500000     0.32562968     0.42564718
     0.47500000     0.41653877     0.42564718
     0.47500000     0.50744787     0.42564718
     0.47500000     0.59835696     0.42564718
     0.47500000     0.68926605     0.42564718
     0.47500000     0.78017514     0.42564718
     0.47500000     0.87108423     0.42564718
     0.47500000     0.96199332     0.42564718
     0.52500000     0.05290241     0.42564718
     0.52500000     0.14381150     0.42564718
     0.52500000     0.23472059     0.42564718
     0.52500000     0.32562968     0.42564718
     0.52500000     0.41653877     0.42564718
     0.52500000     0.50744787     0.42564718
     0.52500000     0.59835696     0.42564718
     0.52500000     0.68926605     0.42564718
     0.52500000     0.78017514     0.42564718
     0.52500000     0.87108423     0.42564718
     0.52500000     0.96199332     0.42564718
     0.57500000     0.05290241     0.42564718
     0.57500000     0.14381150     0.42564718
     0.57500000     0.23472059     0.42564718
     0.57500000     0.32562968     0.42564718
     0.57500000     0.41653877     0.42564718
     0.57500000     0.50744787     0.42564718
     0.57500000     0.59835696     0.42564718
     0.57500000     0.68926605     0.42564718
     0.57500000     0.78017514     0.42564718
     0.57500000     0.87108423     0.42564718
     0.57500000     0.96199332     0.42564718
     0.62500000     0.05290241     0.42564718
     0.62500000     0.14381150     0.42564718
     0.62500000     0.23472059     0.42564718
     0.62500000     0.32562968     0.42564718
     0.62500000     0.41653877     0.42564718
     0.62500000     0.50744787     0.42564718
     0.62500000     0.59835696     0.42564718
     0.62500000     0.68926605     0.42564718
     0.62500000     0.78017514     0.42564718
     0.62500000     0.87108423     0.42564718
     0.62500000     0.96199332     0.42564718
     0.67500000     0.05290241     0.42564718
     0.67500000     0.14381150     0.42564718
     0.67500000     0.23472059     0.42564718
     0.67500000     0.32562968     0.42564718
     0.67500000     0.41653877     0.42564718
     0.67500000     0.50744787     0.42564718
     0.67500000     0.59835696     0.42564718
     0.67500000     0.68926605     0.42564718
     0.67500000     0.78017514     0.42564718
     0.67500000     0.87108423     0.42564718
     0.67500000     0.96199332     0.42564718
     0.72500000     0.05290241     0.42564718
     0.72500000     0.14381150     0.42564718
     0.72500000     0.23472059     0.42564718
     0.72500000     0.32562968     0.42564718
     0.72500000     0.41653877     0.42564718
     0.72500000     0.50744787     0.42564718
     0.72500000     0.59835696     0.42564718
     0.72500000     0.68926605     0.42564718
     0.72500000     0.78017514     0.42564718
     0.72500000     0.87108423     0.42564718
     0.72500000     0.96199332     0.42564718
     0.77500000     0.05290241     0.42564718
     0.77500000     0.14381150     0.42564718
     0.77500000     0.23472059     0.42564718
     0.77500000     0.32562968     0.42564718
     0.77500000     0.41653877     0.42564718
     0.77500000     0.50744787     0.42564718
     0.77500000     0.59835696     0.42564718
     0.77500000     0.68926605     0.42564718
     0.77500000     0.78017514     0.42564718
     0.77500000     0.87108423     0.42564718
     0.77500000     0.96199332     0.42564718
     0.82500000     0.05290241     0.42564718
     0.82500000     0.14381150     0.42564718
     0.82500000     0.23472059     0.42564718
     0.82500000     0.32562968     0.42564718
     0.82500000     0.41653877     0.42564718
     0.82500000     0.50744787     0.42564718
     0.82500000     0.59835696     0.42564718
     0.82500000     0.68926605     0.42564718
     0.82500000     0.78017514     0.42564718
     0.82500000     0.87108423     0.42564718
     0.82500000     0.96199332     0.42564718
     0.87500000     0.05290241     0.42564718
     0.87500000     0.14381150     0.42564718
     0.87500000     0.23472059     0.42564718
     0.87500000     0.32562968     0.42564718
     0.87500000     0.41653877     0.42564718
     0.87500000     0.50744787     0.42564718
     0.87500000     0.59835696     0.42564718
     0.87500000     0.68926605     0.42564718
     0.87500000     0.78017514     0.42564718
     0.87500000     0.87108423     0.42564718
     0.87500000     0.96199332     0.42564718
     0.92500000     0.05290241     0.42564718
     0.92500000     0.14381150     0.42564718
     0.92500000     0.23472059     0.42564718
     0.92500000     0.32562968     0.42564718
     0.92500000     0.41653877     0.42564718
     0.92500000     0.50744787     0.42564718
     0.92500000     0.59835696     0.42564718
     0.92500000     0.68926605     0.42564718
     0.92500000     0.78017514     0.42564718
     0.92500000     0.87108423     0.42564718
     0.92500000     0.96199332     0.42564718
     0.97500000     0.05290241     0.42564718
     0.97500000     0.14381150     0.42564718
     0.97500000     0.23472059     0.42564718
     0.97500000     0.32562968     0.42564718
     0.97500000     0.41653877     0.42564718
     0.97500000     0.50744787     0.42564718
     0.97500000     0.59835696     0.42564718
     0.97500000     0.68926605     0.42564718
     0.97500000     0.78017514     0.42564718
     0.97500000     0.87108423     0.42564718
     0.97500000     0.96199332     0.42564718
     0.02500000     0.03795771     0.31941913
     0.02500000     0.12886680     0.31941913
     0.02500000     0.21977589     0.31941913
     0.02500000     0.31068498     0.31941913
     0.02500000     0.40159407     0.31941913
     0.02500000     0.49250316     0.31941913
     0.02500000     0.58341225     0.31941913
     0.02500000     0.67432135     0.31941913
     0.02500000     0.76523044     0.31941913
     0.02500000     0.85613953     0.31941913
     0.02500000     0.94704862     0.31941913
     0.07500000     0.03795771     0.31941913
     0.07500000     0.12886680     0.31941913
     0.07500000     0.21977589     0.31941913
     0.07500000     0.31068498     0.31941913
     0.07500000     0.40159407     0.31941913
     0.07500000     0.49250316     0.31941913
     0.07500000     0.58341225     0.31941913
     0.07500000     0.67432135     0.31941913
     0.07500000     0.76523044     0.31941913
     0.07500000     0.85613953     0.31941913
     0.07500000     0.94704862     0.31941913
     0.12500000     0.03795771     0.31941913
     0.12500000     0.12886680     0.31941913
     0.12500000     0.21977589     0.31941913
     0.12500000     0.31068498     0.31941913
     0.12500000     0.40159407     0.31941913
     0.12500000     0.49250316     0.31941913
     0.12500000     0.58341225     0.31941913
     0.12500000     0.67432135     0.31941913
     0.12500000     0.76523044     0.31941913
     0.12500000     0.85613953     0.31941913
     0.12500000     0.94704862     0.31941913
     0.17500000     0.03795771     0.31941913
     0.17500000     0.12886680     0.31941913
     0.17500000     0.21977589     0.31941913
     0.17500000     0.31068498     0.31941913
     0.17500000     0.40159407     0.31941913
     0.17500000     0.49250316     0.31941913
     0.17500000     0.58341225     0.31941913
     0.17500000     0.67432135     0.31941913
     0.17500000     0.76523044     0.31941913
     0.17500000     0.85613953     0.31941913
     0.17500000     0.94704862     0.31941913
     0.22500000     0.03795771     0.31941913
     0.22500000     0.12886680     0.31941913
     0.22500000     0.21977589     0.31941913
     0.22500000     0.31068498     0.31941913
     0.22500000     0.40159407     0.31941913
     0.22500000     0.49250316     0.31941913
     0.22500000     0.58341225     0.31941913
     0.22500000     0.67432135     0.31941913
     0.22500000     0.76523044     0.31941913
     0.22500000     0.85613953     0.31941913
     0.22500000     0.94704862     0.31941913
     0.27500000     0.03795771     0.31941913
     0.27500000     0.12886680     0.31941913
     0.27500000     0.21977589     0.31941913
     0.27500000     0.31068498     0.31941913
     0.27500000     0.40159407     0.31941913
     0.27500000     0.49250316     0.31941913
     0.27500000     0.58341225     0.31941913
     0.27500000     0.67432135     0.31941913
     0.27500000     0.76523044     0.31941913
     0.27500000     0.85613953     0.31941913
     0.27500000     0.94704862     0.31941913
     0.32500000     0.03795771     0.31941913
     0.32500000     0.12886680     0.31941913
     0.32500000     0.21977589     0.31941913
     0.32500000     0.31068498     0.31941913
     0.32500000     0.40159407     0.31941913
     0.32500000     0.49250316     0.31941913
     0.32500000     0.58341225     0.31941913
     0.32500000     0.67432135     0.31941913
     0.32500000     0.76523044     0.31941913
     0.32500000     0.85613953     0.31941913
     0.32500000     0.94704862     0.31941913
     0.37500000     0.03795771     0.31941913
     0.37500000     0.12886680     0.31941913
     0.37500000     0.21977589     0.31941913
     0.37500000     0.31068498     0.31941913
     0.37500000     0.40159407     0.31941913
     0.37500000     0.49250316     0.31941913
     0.37500000     0.58341225     0.31941913
     0.37500000     0.67432135     0.31941913
     0.37500000     0.76523044     0.31941913
     0.37500000     0.85613953     0.31941913
     0.37500000     0.94704862     0.31941913
     0.42500000     0.03795771     0.31941913
     0.42500000     0.12886680     0.31941913
     0.42500000     0.21977589     0.31941913
     0.42500000     0.31068498     0.31941913
     0.42500000     0.40159407     0.31941913
     0.42500000     0.49250316     0.31941913
     0.42500000     0.58341225     0.31941913
     0.42500000     0.67432135     0.31941913
     0.42500000     0.76523044     0.31941913
     0.42500000     0.85613953     0.31941913
     0.42500000     0.94704862     0.31941913
     0.47500000     0.03795771     0.31941913
     0.47500000     0.12886680     0.31941913
     0.47500000     0.21977589     0.31941913
     0.47500000     0.31068498     0.31941913
     0.47500000     0.40159407     0.31941913
     0.47500000     0.49250316     0.31941913
     0.47500000     0.58341225     0.31941913
     0.47500000     0.67432135     0.31941913
     0.47500000     0.76523044     0.31941913
     0.47500000     0.85613953     0.31941913
     0.47500000     0.94704862     0.31941913
     0.52500000     0.03795771     0.31941913
     0.52500000     0.12886680     0.31941913
     0.52500000     0.21977589     0.31941913
     0.52500000     0.31068498     0.31941913
     0.52500000     0.40159407     0.31941913
     0.52500000     0.49250316     0.31941913
     0.52500000     0.58341225     0.31941913
     0.52500000     0.67432135     0.31941913
     0.52500000     0.76523044     0.31941913
     0.52500000     0.85613953     0.31941913
     0.52500000     0.94704862     0.31941913
     0.57500000     0.03795771     0.31941913
     0.57500000     0.12886680     0.31941913
     0.57500000     0.21977589     0.31941913
     0.57500000     0.31068498     0.31941913
     0.57500000     0.40159407     0.31941913
     0.57500000     0.49250316     0.31941913
     0.57500000     0.58341225     0.31941913
     0.57500000     0.67432135     0.31941913
     0.57500000     0.76523044     0.31941913
     0.57500000     0.85613953     0.31941913
     0.57500000     0.94704862     0.31941913
     0.62500000     0.03795771     0.31941913
     0.62500000     0.12886680     0.31941913
     0.62500000     0.21977589     0.31941913
     0.62500000     0.31068498     0.31941913
     0.62500000     0.40159407     0.31941913
     0.62500000     0.49250316     0.31941913
     0.62500000     0.58341225     0.31941913
     0.62500000     0.67432135     0.31941913
     0.62500000     0.76523044     0.31941913
     0.62500000     0.85613953     0.31941913
     0.62500000     0.94704862     0.31941913
     0.67500000     0.03795771     0.31941913
     0.67500000     0.12886680     0.31941913
     0.67500000     0.21977589     0.31941913
     0.67500000     0.31068498     0.31941913
     0.67500000     0.40159407     0.31941913
     0.67500000     0.49250316     0.31941913
     0.67500000     0.58341225     0.31941913
     0.67500000     0.67432135     0.31941913
     0.67500000     0.76523044     0.31941913
     0.67500000     0.85613953     0.31941913
     0.67500000     0.94704862     0.31941913
     0.72500000     0.03795771     0.31941913
     0.72500000     0.12886680     0.31941913
     0.72500000     0.21977589     0.31941913
     0.72500000     0.31068498     0.31941913
     0.72500000     0.40159407     0.31941913
     0.72500000     0.49250316     0.31941913
     0.72500000     0.58341225     0.31941913
     0.72500000     0.67432135     0.31941913
     0.72500000     0.76523044     0.31941913
     0.72500000     0.85613953     0.31941913
     0.72500000     0.94704862     0.31941913
     0.77500000     0.03795771     0.31941913
     0.77500000     0.12886680     0.31941913
     0.77500000     0.21977589     0.31941913
     0.77500000     0.31068498     0.31941913
     0.77500000     0.40159407     0.31941913
     0.77500000     0.49250316     0.31941913
     0.77500000     0.58341225     0.31941913
     0.77500000     0.67432135     0.31941913
     0.77500000     0.76523044     0.31941913
     0.77500000     0.85613953     0.31941913
     0.77500000     0.94704862     0.31941913
     0.82500000     0.03795771     0.31941913
     0.82500000     0.12886680     0.31941913
     0.82500000     0.21977589     0.31941913
     0.82500000     0.31068498     0.31941913
     0.82500000     0.40159407     0.31941913
     0.82500000     0.49250316     0.31941913
     0.82500000     0.58341225     0.31941913
     0.82500000     0.67432135     0.31941913
     0.82500000     0.76523044     0.31941913
     0.82500000     0.85613953     0.31941913
     0.82500000     0.94704862     0.31941913
     0.87500000     0.03795771     0.31941913
     0.87500000     0.12886680     0.31941913
     0.87500000     0.21977589     0.31941913
     0.87500000     0.31068498     0.31941913
     0.87500000     0.40159407     0.31941913
     0.87500000     0.49250316     0.31941913
     0.87500000     0.58341225     0.31941913
     0.87500000     0.67432135     0.31941913
     0.87500000     0.76523044     0.31941913
     0.87500000     0.85613953     0.31941913
     0.87500000     0.94704862     0.31941913
     0.92500000     0.03795771     0.31941913
     0.92500000     0.12886680     0.31941913
     0.92500000     0.21977589     0.31941913
     0.92500000     0.31068498     0.31941913
     0.92500000     0.40159407     0.31941913
     0.92500000     0.49250316     0.31941913
     0.92500000     0.58341225     0.31941913
     0.92500000     0.67432135     0.31941913
     0.92500000     0.76523044     0.31941913
     0.92500000     0.85613953     0.31941913
     0.92500000     0.94704862     0.31941913
     0.97500000     0.03795771     0.31941913
     0.97500000     0.12886680     0.31941913
     0.97500000     0.21977589     0.31941913
     0.97500000     0.31068498     0.31941913
     0.97500000     0.40159407     0.31941913
     0.97500000     0.49250316     0.31941913
     0.97500000     0.58341225     0.31941913
     0.97500000     0.67432135     0.31941913
     0.97500000     0.76523044     0.31941913
     0.97500000     0.85613953     0.31941913
     0.97500000     0.94704862     0.31941913
     0.05000000     0.00749684     0.31941913
     0.05000000     0.09840593     0.31941913
     0.05000000     0.18931502     0.31941913
     0.05000000     0.28022411     0.31941913
     0.05000000     0.37113320     0.31941913
     0.05000000     0.46204229     0.31941913
     0.05000000     0.55295138     0.31941913
     0.05000000     0.64386047     0.31941913
     0.05000000     0.73476956     0.31941913
     0.05000000     0.82567866     0.31941913
     0.05000000     0.91658775     0.31941913
     0.10000000     0.00749684     0.31941913
     0.10000000     0.09840593     0.31941913
     0.10000000     0.18931502     0.31941913
     0.10000000     0.28022411     0.31941913
     0.10000000     0.37113320     0.31941913
     0.10000000     0.46204229     0.31941913
     0.10000000     0.55295138     0.31941913
     0.10000000     0.64386047     0.31941913
     0.10000000     0.73476956     0.31941913
     0.10000000     0.82567866     0.31941913
     0.10000000     0.91658775     0.31941913
     0.15000000     0.00749684     0.31941913
     0.15000000     0.09840593     0.31941913
     0.15000000     0.18931502     0.31941913
     0.15000000     0.28022411     0.31941913
     0.15000000     0.37113320     0.31941913
     0.15000000     0.46204229     0.31941913
     0.15000000     0.55295138     0.31941913
     0.15000000     0.64386047     0.31941913
     0.15000000     0.73476956     0.31941913
     0.15000000     0.82567866     0.31941913
     0.15000000     0.91658775     0.31941913
     0.20000000     0.00749684     0.31941913
     0.20000000     0.09840593     0.31941913
     0.20000000     0.18931502     0.31941913
     0.20000000     0.28022411     0.31941913
     0.20000000     0.37113320     0.31941913
     0.20000000     0.46204229     0.31941913
     0.20000000     0.55295138     0.31941913
     0.20000000     0.64386047     0.31941913
     0.20000000     0.73476956     0.31941913
     0.20000000     0.82567866     0.31941913
     0.20000000     0.91658775     0.31941913
     0.25000000     0.00749684     0.31941913
     0.25000000     0.09840593     0.31941913
     0.25000000     0.18931502     0.31941913
     0.25000000     0.28022411     0.31941913
     0.25000000     0.37113320     0.31941913
     0.25000000     0.46204229     0.31941913
     0.25000000     0.55295138     0.31941913
     0.25000000     0.64386047     0.31941913
     0.25000000     0.73476956     0.31941913
     0.25000000     0.82567866     0.31941913
     0.25000000     0.91658775     0.31941913
     0.30000000     0.00749684     0.31941913
     0.30000000     0.09840593     0.31941913
     0.30000000     0.18931502     0.31941913
     0.30000000     0.28022411     0.31941913
     0.30000000     0.37113320     0.31941913
     0.30000000     0.46204229     0.31941913
     0.30000000     0.55295138     0.31941913
     0.30000000     0.64386047     0.31941913
     0.30000000     0.73476956     0.31941913
     0.30000000     0.82567866     0.31941913
     0.30000000     0.91658775     0.31941913
     0.35000000     0.00749684     0.31941913
     0.35000000     0.09840593     0.31941913
     0.35000000     0.18931502     0.31941913
     0.35000000     0.28022411     0.31941913
     0.35000000     0.37113320     0.31941913
     0.35000000     0.46204229     0.31941913
     0.35000000     0.55295138     0.31941913
     0.35000000     0.64386047     0.31941913
     0.35000000     0.73476956     0.31941913
     0.35000000     0.82567866     0.31941913
     0.35000000     0.91658775     0.31941913
     0.40000000     0.00749684     0.31941913
     0.40000000     0.09840593     0.31941913
     0.40000000     0.18931502     0.31941913
     0.40000000     0.28022411     0.31941913
     0.40000000     0.37113320     0.31941913
     0.40000000     0.46204229     0.31941913
     0.40000000     0.55295138     0.31941913
     0.40000000     0.64386047     0.31941913
     0.40000000     0.73476956     0.31941913
     0.40000000     0.82567866     0.31941913
     0.40000000     0.91658775     0.31941913
     0.45000000     0.00749684     0.31941913
     0.45000000     0.09840593     0.31941913
     0.45000000     0.18931502     0.31941913
     0.45000000     0.28022411     0.31941913
     0.45000000     0.37113320     0.31941913
     0.45000000     0.46204229     0.31941913
     0.45000000     0.55295138     0.31941913
     0.45000000     0.64386047     0.31941913
     0.45000000     0.73476956     0.31941913
     0.45000000     0.82567866     0.31941913
     0.45000000     0.91658775     0.31941913
     0.50000000     0.00749684     0.31941913
     0.50000000     0.09840593     0.31941913
     0.50000000     0.18931502     0.31941913
     0.50000000     0.28022411     0.31941913
     0.50000000     0.37113320     0.31941913
     0.50000000     0.46204229     0.31941913
     0.50000000     0.55295138     0.31941913
     0.50000000     0.64386047     0.31941913
     0.50000000     0.73476956     0.31941913
     0.50000000     0.82567866     0.31941913
     0.50000000     0.91658775     0.31941913
     0.55000000     0.00749684     0.31941913
     0.55000000     0.09840593     0.31941913
     0.55000000     0.18931502     0.31941913
     0.55000000     0.28022411     0.31941913
     0.55000000     0.37113320     0.31941913
     0.55000000     0.46204229     0.31941913
     0.55000000     0.55295138     0.31941913
     0.55000000     0.64386047     0.31941913
     0.55000000     0.73476956     0.31941913
     0.55000000     0.82567866     0.31941913
     0.55000000     0.91658775     0.31941913
     0.60000000     0.00749684     0.31941913
     0.60000000     0.09840593     0.31941913
     0.60000000     0.18931502     0.31941913
     0.60000000     0.28022411     0.31941913
     0.60000000     0.37113320     0.31941913
     0.60000000     0.46204229     0.31941913
     0.60000000     0.55295138     0.31941913
     0.60000000     0.64386047     0.31941913
     0.60000000     0.73476956     0.31941913
     0.60000000     0.82567866     0.31941913
     0.60000000     0.91658775     0.31941913
     0.65000000     0.00749684     0.31941913
     0.65000000     0.09840593     0.31941913
     0.65000000     0.18931502     0.31941913
     0.65000000     0.28022411     0.31941913
     0.65000000     0.37113320     0.31941913
     0.65000000     0.46204229     0.31941913
     0.65000000     0.55295138     0.31941913
     0.65000000     0.64386047     0.31941913
     0.65000000     0.73476956     0.31941913
     0.65000000     0.82567866     0.31941913
     0.65000000     0.91658775     0.31941913
     0.70000000     0.00749684     0.31941913
     0.70000000     0.09840593     0.31941913
     0.70000000     0.18931502     0.31941913
     0.70000000     0.28022411     0.31941913
     0.70000000     0.37113320     0.31941913
     0.70000000     0.46204229     0.31941913
     0.70000000     0.55295138     0.31941913
     0.70000000     0.64386047     0.31941913
     0.70000000     0.73476956     0.31941913
     0.70000000     0.82567866     0.31941913
     0.70000000     0.91658775     0.31941913
     0.75000000     0.00749684     0.31941913
     0.75000000     0.09840593     0.31941913
     0.75000000     0.18931502     0.31941913
     0.75000000     0.28022411     0.31941913
     0.75000000     0.37113320     0.31941913
     0.75000000     0.46204229     0.31941913
     0.75000000     0.55295138     0.31941913
     0.75000000     0.64386047     0.31941913
     0.75000000     0.73476956     0.31941913
     0.75000000     0.82567866     0.31941913
     0.75000000     0.91658775     0.31941913
     0.80000000     0.00749684     0.31941913
     0.80000000     0.09840593     0.31941913
     0.80000000     0.18931502     0.31941913
     0.80000000     0.28022411     0.31941913
     0.80000000     0.37113320     0.31941913
     0.80000000     0.46204229     0.31941913
     0.80000000     0.55295138     0.31941913
     0.80000000     0.64386047     0.31941913
     0.80000000     0.73476956     0.31941913
     0.80000000     0.82567866     0.31941913
     0.80000000     0.91658775     0.31941913
     0.85000000     0.00749684     0.31941913
     0.85000000     0.09840593     0.31941913
     0.85000000     0.18931502     0.31941913
     0.85000000     0.28022411     0.31941913
     0.85000000     0.37113320     0.31941913
     0.85000000     0.46204229     0.31941913
     0.85000000     0.55295138     0.31941913
     0.85000000     0.64386047     0.31941913
     0.85000000     0.73476956     0.31941913
     0.85000000     0.82567866     0.31941913
     0.85000000     0.91658775     0.31941913
     0.90000000     0.00749684     0.31941913
     0.90000000     0.09840593     0.31941913
     0.90000000     0.18931502     0.31941913
     0.90000000     0.28022411     0.31941913
     0.90000000     0.37113320     0.31941913
     0.90000000     0.46204229     0.31941913
     0.90000000     0.55295138     0.31941913
     0.90000000     0.64386047     0.31941913
     0.90000000     0.73476956     0.31941913
     0.90000000     0.82567866     0.31941913
     0.90000000     0.91658775     0.31941913
     0.95000000     0.00749684     0.31941913
     0.95000000     0.09840593     0.31941913
     0.95000000     0.18931502     0.31941913
     0.95000000     0.28022411     0.31941913
     0.95000000     0.37113320     0.31941913
     0.95000000     0.46204229     0.31941913
     0.95000000     0.55295138     0.31941913
     0.95000000     0.64386047     0.31941913
     0.95000000     0.73476956     0.31941913