Generated by Twist2D
    1.0
      72.53399197       0.00000000       0.00000000
       0.00000000      53.16583595       0.00000000
       0.00000000       0.00000000      20.00000000
    P
    2116
Direct
     0.02272727     0.04849388     0.42564718
     0.02272727     0.13182721     0.42564718
     0.02272727     0.21516054     0.42564718
     0.02272727     0.29849388     0.42564718
     0.02272727     0.38182721     0.42564718
     0.02272727     0.46516054     0.42564718
     0.02272727     0.54849388     0.42564718
     0.02272727     0.63182721     0.42564718
     0.02272727     0.71516054     0.42564718
     0.02272727     0.79849388     0.42564718
     0.02272727     0.88182721     0.42564718
     0.02272727     0.96516054     0.42564718
     0.06818182     0.04849388     0.42564718
     0.06818182     0.13182721     0.42564718
     0.06818182     0.21516054     0.42564718
     0.06818182     0.29849388     0.42564718
     0.06818182     0.38182721     0.42564718
     0.06818182     0.46516054     0.42564718
     0.06818182     0.54849388     0.42564718
     0.06818182     0.63182721     0.42564718
     0.06818182     0.71516054     0.42564718
     0.06818182     0.79849388     0.42564718
     0.06818182     0.88182721     0.42564718
     0.06818182     0.96516054     0.42564718
     0.11363636     0.04849388     0.42564718
     0.11363636     0.13182721     0.42564718
     0.11363636     0.21516054     0.42564718
     0.11363636     0.29849388     0.42564718
     0.11363636     0.38182721     0.42564718
     0.11363636     0.46516054     0.42564718
     0.11363636     0.54849388     0.42564718
     0.11363636     0.63182721     0.42564718
     0.11363636     0.71516054     0.42564718
     0.11363636     0.79849388     0.42564718
     0.11363636     0.88182721     0.42564718
     0.11363636     0.96516054     0.42564718
     0.15909091     0.04849388     0.42564718
     0.15909091     0.13182721     0.42564718
     0.15909091     0.21516054     0.42564718
     0.15909091     0.29849388     0.42564718
     0.15909091     0.38182721     0.42564718
     0.15909091     0.46516054     0.42564718
     0.15909091     0.54849388     0.42564718
     0.15909091     0.63182721     0.42564718
     0.15909091     0.71516054     0.42564718
     0.15909091     0.79849388     0.42564718
     0.15909091     0.88182721     0.42564718
     0.15909091     0.96516054     0.42564718
     0.20454545     0.04849388     0.42564718
     0.20454545     0.13182721     0.42564718
     0.20454545     0.21516054     0.42564718
     0.20454545     0.29849388     0.42564718
     0.20454545     0.38182721     0.42564718
     0.20454545     0.46516054     0.42564718
     0.20454545     0.54849388     0.42564718
     0.20454545     0.63182721     0.42564718
     0.20454545     0.71516054     0.42564718
     0.20454545     0.79849388     0.42564718
     0.20454545     0.88182721     0.42564718
     0.20454545     0.96516054     0.42564718
     0.25000000     0.04849388     0.42564718
     0.25000000     0.13182721     0.42564718
     0.25000000     0.21516054     0.42564718
     0.25000000     0.29849388     0.42564718
     0.25000000     0.38182721     0.42564718
     0.25000000     0.46516054     0.42564718
     0.25000000     0.54849388     0.42564718
     0.25000000     0.63182721     0.42564718
     0.25000000     0.71516054     0.42564718
     0.25000000     0.79849388     0.42564718
     0.25000000     0.88182721     0.42564718
     0.25000000     0.96516054     0.42564718
     0.29545455     0.04849388     0.42564718
     0.29545455     0.13182721     0.42564718
     0.29545455     0.21516054     0.42564718
     0.29545455     0.29849388     0.42564718
     0.29545455     0.38182721     0.42564718
     0.29545455     0.46516054     0.42564718
     0.29545455     0.54849388     0.42564718
     0.29545455     0.63182721     0.42564718
     0.29545455     0.71516054     0.42564718
     0.29545455     0.79849388     0.42564718
     0.29545455     0.88182721     0.42564718
     0.29545455     0.96516054     0.42564718
     0.34090909     0.04849388     0.42564718
     0.34090909     0.13182721     0.42564718
     0.34090909     0.21516054     0.42564718
     0.34090909     0.29849388     0.42564718
     0.34090909     0.38182721     0.42564718
     0.34090909     0.46516054     0.42564718
     0.34090909     0.54849388     0.42564718
     0.34090909     0.63182721     0.42564718
     0.34090909     0.71516054     0.42564718
     0.34090909     0.79849388     0.42564718
     0.34090909     0.88182721     0.42564718
     0.34090909     0.96516054     0.42564718
     0.38636364     0.04849388     0.42564718
     0.38636364     0.13182721     0.42564718
     0.38636364     0.21516054     0.42564718
     0.38636364     0.29849388     0.42564718
     0.38636364     0.38182721     0.42564718
     0.38636364     0.46516054     0.42564718
     0.38636364     0.54849388     0.42564718
     0.38636364     0.63182721     0.42564718
     0.38636364     0.71516054     0.42564718
     0.38636364     0.79849388     0.42564718
     0.38636364     0.88182721     0.42564718
     0.38636364     0.96516054     0.42564718
     0.43181818     0.04849388     0.42564718
     0.43181818     0.13182721     0.42564718
     0.43181818     0.21516054     0.42564718
     0.43181818     0.29849388     0.42564718
     0.43181818     0.38182721     0.42564718
     0.43181818     0.46516054     0.42564718
     0.43181818     0.54849388     0.42564718
     0.43181818     0.63182721     0.42564718
     0.43181818     0.71516054     0.42564718
     0.43181818     0.79849388     0.42564718
     0.43181818     0.88182721     0.42564718
     0.43181818     0.96516054     0.42564718
     0.47727273     0.04849388     0.42564718
     0.47727273     0.13182721     0.42564718
     0.47727273     0.21516054     0.42564718
     0.47727273     0.29849388     0.42564718
     0.47727273     0.38182721     0.42564718
     0.47727273     0.46516054     0.42564718
     0.47727273     0.54849388     0.42564718
     0.47727273     0.63182721     0.42564718
     0.47727273     0.71516054     0.42564718
     0.47727273     0.79849388     0.42564718
     0.47727273     0.88182721     0.42564718
     0.47727273     0.96516054     0.42564718
     0.52272727     0.04849388     0.42564718
     0.52272727     0.13182721     0.42564718
     0.52272727     0.21516054     0.42564718
     0.52272727     0.29849388     0.42564718
     0.52272727     0.38182721     0.42564718
     0.52272727     0.46516054     0.42564718
     0.52272727     0.54849388     0.42564718
     0.52272727     0.63182721     0.42564718
     0.52272727     0.71516054     0.42564718
     0.52272727     0.79849388     0.42564718
     0.52272727     0.88182721     0.42564718
     0.52272727     0.96516054     0.42564718
     0.56818182     0.04849388     0.42564718
     0.56818182     0.13182721     0.42564718
     0.56818182     0.21516054     0.42564718
     0.56818182     0.29849388     0.42564718
     0.56818182     0.38182721     0.42564718
     0.56818182     0.46516054     0.42564718
     0.56818182     0.54849388     0.42564718
     0.56818182     0.63182721     0.42564718
     0.56818182     0.71516054     0.42564718
     0.56818182     0.79849388     0.42564718
     0.56818182     0.88182721     0.42564718
     0.56818182     0.96516054     0.42564718
     0.61363636     0.04849388     0.42564718
     0.61363636     0.13182721     0.42564718
     0.61363636     0.21516054     0.42564718
     0.61363636     0.29849388     0.42564718
     0.61363636     0.38182721     0.42564718
     0.61363636     0.46516054     0.42564718
     0.61363636     0.54849388     0.42564718
     0.61363636     0.63182721     0.42564718
     0.61363636     0.71516054     0.42564718
     0.61363636     0.79849388     0.42564718
     0.61363636     0.88182721     0.42564718
     0.61363636     0.96516054     0.42564718
     0.65909091     0.04849388     0.42564718
     0.65909091     0.13182721     0.42564718
     0.65909091     0.21516054     0.42564718
     0.65909091     0.29849388     0.42564718
     0.65909091     0.38182721     0.42564718
     0.65909091     0.46516054     0.42564718
     0.65909091     0.54849388     0.42564718
     0.65909091     0.63182721     0.42564718
     0.65909091     0.71516054     0.42564718
     0.65909091     0.79849388     0.42564718
     0.65909091     0.88182721     0.42564718
     0.65909091     0.96516054     0.42564718
     0.70454545     0.04849388     0.42564718
     0.70454545     0.13182721     0.42564718
     0.70454545     0.21516054     0.42564718
     0.70454545     0.29849388     0.42564718
     0.70454545     0.38182721     0.42564718
     0.70454545     0.46516054     0.42564718
     0.70454545     0.54849388     0.42564718
     0.70454545     0.63182721     0.42564718
     0.70454545     0.71516054     0.42564718
     0.70454545     0.79849388     0.42564718
     0.70454545     0.88182721     0.42564718
     0.70454545     0.96516054     0.42564718
     0.75000000     0.04849388     0.42564718
     0.75000000     0.13182721     0.42564718
     0.75000000     0.21516054     0.42564718
     0.75000000     0.29849388     0.42564718
     0.75000000     0.38182721     0.42564718
     0.75000000     0.46516054     0.42564718
     0.75000000     0.54849388     0.42564718
     0.75000000     0.63182721     0.42564718
     0.75000000     0.71516054     0.42564718
     0.75000000     0.79849388     0.42564718
     0.75000000     0.88182721     0.42564718
     0.75000000     0.96516054     0.42564718
     0.79545455     0.04849388     0.42564718
     0.79545455     0.13182721     0.42564718
     0.79545455     0.21516054     0.42564718
     0.79545455     0.29849388     0.42564718
     0.79545455     0.38182721     0.42564718
     0.79545455     0.46516054     0.42564718
     0.79545455     0.54849388     0.42564718
     0.79545455     0.63182721     0.42564718
     0.79545455     0.71516054     0.42564718
     0.79545455     0.79849388     0.42564718
     0.79545455     0.88182721     0.42564718
     0.79545455     0.96516054     0.42564718
     0.84090909     0.04849388     0.42564718
     0.84090909     0.13182721     0.42564718
     0.84090909     0.21516054     0.42564718
     0.84090909     0.29849388     0.42564718
     0.84090909     0.38182721     0.42564718
     0.84090909     0.46516054     0.42564718
     0.84090909     0.54849388     0.42564718
     0.84090909     0.63182721     0.42564718
     0.84090909     0.71516054     0.42564718
     0.84090909     0.79849388     0.42564718
     0.84090909     0.88182721     0.42564718
     0.84090909     0.96516054     0.42564718
     0.88636364     0.04849388     0.42564718
     0.88636364     0.13182721     0.42564718
     0.88636364     0.21516054     0.42564718
     0.88636364     0.29849388     0.42564718
     0.88636364     0.38182721     0.42564718
     0.88636364     0.46516054     0.42564718
     0.88636364     0.54849388     0.42564718
     0.88636364     0.63182721     0.42564718
     0.88636364     0.71516054     0.42564718
     0.88636364     0.79849388     0.42564718
     0.88636364     0.88182721     0.42564718
     0.88636364     0.96516054     0.42564718
     0.93181818     0.04849388     0.42564718
     0.93181818     0.13182721     0.42564718
     0.93181818     0.21516054     0.42564718
     0.93181818     0.29849388     0.42564718
     0.93181818     0.38182721     0.42564718
     0.93181818     0.46516054     0.42564718
     0.93181818     0.54849388     0.42564718
     0.93181818     0.63182721     0.42564718
     0.93181818     0.71516054     0.42564718
     0.93181818     0.79849388     0.42564718
     0.93181818     0.88182721     0.42564718
     0.93181818     0.96516054     0.42564718
     0.97727273     0.04849388     0.42564718
     0.97727273     0.13182721     0.42564718
     0.97727273     0.21516054     0.42564718
     0.97727273     0.29849388     0.42564718
     0.97727273     0.38182721     0.42564718
     0.97727273     0.46516054     0.42564718
     0.97727273     0.54849388     0.42564718
     0.97727273     0.63182721     0.42564718
     0.97727273     0.71516054     0.42564718
     0.97727273     0.79849388     0.42564718
     0.97727273     0.88182721     0.42564718
     0.97727273     0.96516054     0.42564718
     0.02272727     0.03479457     0.31941913
     0.02272727     0.11812790     0.31941913
     0.02272727     0.20146123     0.31941913
     0.02272727     0.28479457     0.31941913
     0.02272727     0.36812790     0.31941913
     0.02272727     0.45146123     0.31941913
     0.02272727     0.53479457     0.31941913
     0.02272727     0.61812790     0.31941913
     0.02272727     0.70146123     0.31941913
     0.02272727     0.78479457     0.31941913
     0.02272727     0.86812790     0.31941913
     0.02272727     0.95146123     0.31941913
     0.06818182     0.03479457     0.31941913
     0.06818182     0.11812790     0.31941913
     0.06818182     0.20146123     0.31941913
     0.06818182     0.28479457     0.31941913
     0.06818182     0.36812790     0.31941913
     0.06818182     0.45146123     0.31941913
     0.06818182     0.53479457     0.31941913
     0.06818182     0.61812790     0.31941913
     0.06818182     0.70146123     0.31941913
     0.06818182     0.78479457     0.31941913
     0.06818182     0.86812790     0.31941913
     0.06818182     0.95146123     0.31941913
     0.11363636     0.03479457     0.31941913
     0.11363636     0.11812790     0.31941913
     0.11363636     0.20146123     0.31941913
     0.11363636     0.28479457     0.31941913
     0.11363636     0.36812790     0.31941913
     0.11363636     0.45146123     0.31941913
     0.11363636     0.53479457     0.31941913
     0.11363636     0.61812790     0.31941913
     0.11363636     0.70146123     0.31941913
     0.11363636     0.78479457     0.31941913
     0.11363636     0.86812790     0.31941913
     0.11363636     0.95146123     0.31941913
     0.15909091     0.03479457     0.31941913
     0.15909091     0.11812790     0.31941913
     0.15909091     0.20146123     0.31941913
     0.15909091     0.28479457     0.31941913
     0.15909091     0.36812790     0.31941913
     0.15909091     0.45146123     0.31941913
     0.15909091     0.53479457     0.31941913
     0.15909091     0.61812790     0.31941913
     0.15909091     0.70146123     0.31941913
     0.15909091     0.78479457     0.31941913
     0.15909091     0.86812790     0.31941913
     0.15909091     0.95146123     0.31941913
     0.20454545     0.03479457     0.31941913
     0.20454545     0.11812790     0.31941913
     0.20454545     0.20146123     0.31941913
     0.20454545     0.28479457     0.31941913
     0.20454545     0.36812790     0.31941913
     0.20454545     0.45146123     0.31941913
     0.20454545     0.53479457     0.31941913
     0.20454545     0.61812790     0.31941913
     0.20454545     0.70146123     0.31941913
     0.20454545     0.78479457     0.31941913
     0.20454545     0.86812790     0.31941913
     0.20454545     0.95146123     0.31941913
     0.25000000     0.03479457     0.31941913
     0.25000000     0.11812790     0.31941913
     0.25000000     0.20146123     0.31941913
     0.25000000     0.28479457     0.31941913
     0.25000000     0.36812790     0.31941913
     0.25000000     0.45146123     0.31941913
     0.25000000     0.53479457     0.31941913
     0.25000000     0.61812790     0.31941913
     0.25000000     0.70146123     0.31941913
     0.25000000     0.78479457     0.31941913
     0.25000000     0.86812790     0.31941913
     0.25000000     0.95146123     0.31941913
     0.29545455     0.03479457     0.31941913
     0.29545455     0.11812790     0.31941913
     0.29545455     0.20146123     0.31941913
     0.29545455     0.28479457     0.31941913
     0.29545455     0.36812790     0.31941913
     0.29545455     0.45146123     0.31941913
     0.29545455     0.53479457     0.31941913
     0.29545455     0.61812790     0.31941913
     0.29545455     0.70146123     0.31941913
     0.29545455     0.78479457     0.31941913
     0.29545455     0.86812790     0.31941913
     0.29545455     0.95146123     0.31941913
     0.34090909     0.03479457     0.31941913
     0.34090909     0.11812790     0.31941913
     0.34090909     0.20146123     0.31941913
     0.34090909     0.28479457     0.31941913
     0.34090909     0.36812790     0.31941913
     0.34090909     0.45146123     0.31941913
     0.34090909     0.53479457     0.31941913
     0.34090909     0.61812790     0.31941913
     0.34090909     0.70146123     0.31941913
     0.34090909     0.78479457     0.31941913
     0.34090909     0.86812790     0.31941913
     0.34090909     0.95146123     0.31941913
     0.38636364     0.03479457     0.31941913
     0.38636364     0.11812790     0.31941913
     0.38636364     0.20146123     0.31941913
     0.38636364     0.28479457     0.31941913
     0.38636364     0.36812790     0.31941913
     0.38636364     0.45146123     0.31941913
     0.38636364     0.53479457     0.31941913
     0.38636364     0.61812790     0.31941913
     0.38636364     0.70146123     0.31941913
     0.38636364     0.78479457     0.31941913
     0.38636364     0.86812790     0.31941913
     0.38636364     0.95146123     0.31941913
     0.43181818     0.03479457     0.31941913
     0.43181818     0.11812790     0.31941913
     0.43181818     0.20146123     0.31941913
     0.43181818     0.28479457     0.31941913
     0.43181818     0.36812790     0.31941913
     0.43181818     0.45146123     0.31941913
     0.43181818     0.53479457     0.31941913
     0.43181818     0.61812790     0.31941913
     0.43181818     0.70146123     0.31941913
     0.43181818     0.78479457     0.31941913
     0.43181818     0.86812790     0.31941913
     0.43181818     0.95146123     0.31941913
     0.47727273     0.03479457     0.31941913
     0.47727273     0.11812790     0.31941913
     0.47727273     0.20146123     0.31941913
     0.47727273     0.28479457     0.31941913
     0.47727273     0.36812790     0.31941913
     0.47727273     0.45146123     0.31941913
     0.47727273     0.53479457     0.31941913
     0.47727273     0.61812790     0.31941913
     0.47727273     0.70146123     0.31941913
     0.47727273     0.78479457     0.31941913
     0.47727273     0.86812790     0.31941913
     0.47727273     0.95146123     0.31941913
     0.52272727     0.03479457     0.31941913
     0.52272727     0.11812790     0.31941913
     0.52272727     0.20146123     0.31941913
     0.52272727     0.28479457     0.31941913
     0.52272727     0.36812790     0.31941913
     0.52272727     0.45146123     0.31941913
     0.52272727     0.53479457     0.31941913
     0.52272727     0.61812790     0.31941913
     0.52272727     0.70146123     0.31941913
     0.52272727     0.78479457     0.31941913
     0.52272727     0.86812790     0.31941913
     0.52272727     0.95146123     0.31941913
     0.56818182     0.03479457     0.31941913
     0.56818182     0.11812790     0.31941913
     0.56818182     0.20146123     0.31941913
     0.56818182     0.28479457     0.31941913
     0.56818182     0.36812790     0.31941913
     0.56818182     0.45146123     0.31941913
     0.56818182     0.53479457     0.31941913
     0.56818182     0.61812790     0.31941913
     0.56818182     0.70146123     0.31941913
     0.56818182     0.78479457     0.31941913
     0.56818182     0.86812790     0.31941913
     0.56818182     0.95146123     0.31941913
     0.61363636     0.03479457     0.31941913
     0.61363636     0.11812790     0.31941913
     0.61363636     0.20146123     0.31941913
     0.61363636     0.28479457     0.31941913
     0.61363636     0.36812790     0.31941913
     0.61363636     0.45146123     0.31941913
     0.61363636     0.53479457     0.31941913
     0.61363636     0.61812790     0.31941913
     0.61363636     0.70146123     0.31941913
     0.61363636     0.78479457     0.31941913
     0.61363636     0.86812790     0.31941913
     0.61363636     0.95146123     0.31941913
     0.65909091     0.03479457     0.31941913
     0.65909091     0.11812790     0.31941913
     0.65909091     0.20146123     0.31941913
     0.65909091     0.28479457     0.31941913
     0.65909091     0.36812790     0.31941913
     0.65909091     0.45146123     0.31941913
     0.65909091     0.53479457     0.31941913
     0.65909091     0.61812790     0.31941913
     0.65909091     0.70146123     0.31941913
     0.65909091     0.78479457     0.31941913
     0.65909091     0.86812790     0.31941913
     0.65909091     0.95146123     0.31941913
     0.70454545     0.03479457     0.31941913
     0.70454545     0.11812790     0.31941913
     0.70454545     0.20146123     0.31941913
     0.70454545     0.28479457     0.31941913
     0.70454545     0.36812790     0.31941913
     0.70454545     0.45146123     0.31941913
     0.70454545     0.53479457     0.31941913
     0.70454545     0.61812790     0.31941913
     0.70454545     0.70146123     0.31941913
     0.70454545     0.78479457     0.31941913
     0.70454545     0.86812790     0.31941913
     0.70454545     0.95146123     0.31941913
     0.75000000     0.03479457     0.31941913
     0.75000000     0.11812790     0.31941913
     0.75000000     0.20146123     0.31941913
     0.75000000     0.28479457     0.31941913
     0.75000000     0.36812790     0.31941913
     0.75000000     0.45146123     0.31941913
     0.75000000     0.53479457     0.31941913
     0.75000000     0.61812790     0.31941913
     0.75000000     0.70146123     0.31941913
     0.75000000     0.78479457     0.31941913
     0.75000000     0.86812790     0.31941913
     0.75000000     0.95146123     0.31941913
     0.79545455     0.03479457     0.31941913
     0.79545455     0.11812790     0.31941913
     0.79545455     0.20146123     0.31941913
     0.79545455     0.28479457     0.31941913
     0.79545455     0.36812790     0.31941913
     0.79545455     0.45146123     0.31941913
     0.79545455     0.53479457     0.31941913
     0.79545455     0.61812790     0.31941913
     0.79545455     0.70146123     0.31941913
     0.79545455     0.78479457     0.31941913
     0.79545455     0.86812790     0.31941913
     0.79545455     0.95146123     0.31941913
     0.84090909     0.03479457     0.31941913
     0.84090909     0.11812790     0.31941913
     0.84090909     0.20146123     0.31941913
     0.84090909     0.28479457     0.31941913
     0.84090909     0.36812790     0.31941913
     0.84090909     0.45146123     0.31941913
     0.84090909     0.53479457     0.31941913
     0.84090909     0.61812790     0.31941913
     0.84090909     0.70146123     0.31941913
     0.84090909     0.78479457     0.31941913
     0.84090909     0.86812790     0.31941913
     0.84090909     0.95146123     0.31941913
     0.88636364     0.03479457     0.31941913
     0.88636364     0.11812790     0.31941913
     0.88636364     0.20146123     0.31941913
     0.88636364     0.28479457     0.31941913
     0.88636364     0.36812790     0.31941913
     0.88636364     0.45146123     0.31941913
     0.88636364     0.53479457     0.31941913
     0.88636364     0.61812790     0.31941913
     0.88636364     0.70146123     0.31941913
     0.88636364     0.78479457     0.31941913
     0.88636364     0.86812790     0.31941913
     0.88636364     0.95146123     0.31941913
     0.93181818     0.03479457     0.31941913
     0.93181818     0.11812790     0.31941913
     0.93181818     0.20146123     0.31941913
     0.93181818     0.28479457     0.31941913
     0.93181818     0.36812790     0.31941913
     0.93181818     0.45146123     0.31941913
     0.93181818     0.53479457     0.31941913
     0.93181818     0.61812790     0.31941913
     0.93181818     0.70146123     0.31941913
     0.93181818     0.78479457     0.31941913
     0.93181818     0.86812790     0.31941913
     0.93181818     0.95146123     0.31941913
     0.97727273     0.03479457     0.31941913
     0.97727273     0.11812790     0.31941913
     0.97727273     0.20146123     0.31941913
     0.97727273     0.28479457     0.31941913
     0.97727273     0.36812790     0.31941913
     0.97727273     0.45146123     0.31941913
     0.97727273     0.53479457     0.31941913
     0.97727273     0.61812790     0.31941913
     0.97727273     0.70146123     0.31941913
     0.97727273     0.78479457     0.31941913
     0.97727273     0.86812790     0.31941913
     0.97727273     0.95146123     0.31941913
     0.04545455     0.00687210     0.31941913
     0.04545455     0.09020543     0.31941913
     0.04545455     0.17353877     0.31941913
     0.04545455     0.25687210     0.31941913
     0.04545455     0.34020543     0.31941913
     0.04545455     0.42353877     0.31941913
     0.04545455     0.50687210     0.31941913
     0.04545455     0.59020543     0.31941913
     0.04545455     0.67353877     0.31941913
     0.04545455     0.75687210     0.31941913
     0.04545455     0.84020543     0.31941913
     0.04545455     0.92353877     0.31941913
     0.09090909     0.00687210     0.31941913
     0.09090909     0.09020543     0.31941913
     0.09090909     0.17353877     0.31941913
     0.09090909     0.25687210     0.31941913
     0.09090909     0.34020543     0.31941913
     0.09090909     0.42353877     0.31941913
     0.09090909     0.50687210     0.31941913
     0.09090909     0.59020543     0.31941913
     0.09090909     0.67353877     0.31941913
     0.09090909     0.75687210     0.31941913
     0.09090909     0.84020543     0.31941913
     0.09090909     0.92353877     0.31941913
     0.13636364     0.00687210     0.31941913
     0.13636364     0.09020543     0.31941913
     0.13636364     0.17353877     0.31941913
     0.13636364     0.25687210     0.31941913
     0.13636364     0.34020543     0.31941913
     0.13636364     0.42353877     0.31941913
     0.13636364     0.50687210     0.31941913
     0.13636364     0.59020543     0.31941913
     0.13636364     0.67353877     0.31941913
     0.13636364     0.75687210     0.31941913
     0.13636364     0.84020543     0.31941913
     0.13636364     0.92353877     0.31941913
     0.18181818     0.00687210     0.31941913
     0.18181818     0.09020543     0.31941913
     0.18181818     0.17353877     0.31941913
     0.18181818     0.25687210     0.31941913
     0.18181818     0.34020543     0.31941913
     0.18181818     0.42353877     0.31941913
     0.18181818     0.50687210     0.31941913
     0.18181818     0.59020543     0.31941913
     0.18181818     0.67353877     0.31941913
     0.18181818     0.75687210     0.31941913
     0.18181818     0.84020543     0.31941913
     0.18181818     0.92353877     0.31941913
     0.22727273     0.00687210     0.31941913
     0.22727273     0.09020543     0.31941913
     0.22727273     0.17353877     0.31941913
     0.22727273     0.25687210     0.31941913
     0.22727273     0.34020543     0.31941913
     0.22727273     0.42353877     0.31941913
     0.22727273     0.50687210     0.31941913
     0.22727273     0.59020543     0.31941913
     0.22727273     0.67353877     0.31941913
     0.22727273     0.75687210     0.31941913
     0.22727273     0.84020543     0.31941913
     0.22727273     0.92353877     0.31941913
     0.27272727     0.00687210     0.31941913
     0.27272727     0.09020543     0.31941913
     0.27272727     0.17353877     0.31941913
     0.27272727     0.25687210     0.31941913
     0.27272727     0.34020543     0.31941913
     0.27272727     0.42353877     0.31941913
     0.27272727     0.50687210     0.31941913
     0.27272727     0.59020543     0.31941913
     0.27272727     0.67353877     0.31941913
     0.27272727     0.75687210     0.31941913
     0.27272727     0.84020543     0.31941913
     0.27272727     0.92353877     0.31941913
     0.31818182     0.00687210     0.31941913
     0.31818182     0.09020543     0.31941913
     0.31818182     0.17353877     0.31941913
     0.31818182     0.25687210     0.31941913
     0.31818182     0.34020543     0.31941913
     0.31818182     0.42353877     0.31941913
     0.31818182     0.50687210     0.31941913
     0.31818182     0.59020543     0.31941913
     0.31818182     0.67353877     0.31941913
     0.31818182     0.75687210     0.31941913
     0.31818182     0.84020543     0.31941913
     0.31818182     0.92353877     0.31941913
     0.36363636     0.00687210     0.31941913
     0.36363636     0.09020543     0.31941913
     0.36363636     0.17353877     0.31941913
     0.36363636     0.25687210     0.31941913
     0.36363636     0.34020543     0.31941913
     0.36363636     0.42353877     0.31941913
     0.36363636     0.50687210     0.31941913
     0.36363636     0.59020543     0.31941913
     0.36363636     0.67353877     0.31941913
     0.36363636     0.75687210     0.31941913
     0.36363636     0.84020543     0.31941913
     0.36363636     0.92353877     0.31941913
     0.40909091     0.00687210     0.31941913
     0.40909091     0.09020543     0.31941913
     0.40909091     0.17353877     0.31941913
     0.40909091     0.25687210     0.31941913
     0.40909091     0.34020543     0.31941913
     0.40909091     0.42353877     0.31941913
     0.40909091     0.50687210     0.31941913
     0.40909091     0.59020543     0.31941913
     0.40909091     0.67353877     0.31941913
     0.40909091     0.75687210     0.31941913
     0.40909091     0.84020543     0.31941913
     0.40909091     0.92353877     0.31941913
     0.45454545     0.00687210     0.31941913
     0.45454545     0.09020543     0.31941913
     0.45454545     0.17353877     0.31941913
     0.45454545     0.25687210     0.31941913
     0.45454545     0.34020543     0.31941913
     0.45454545     0.42353877     0.31941913
     0.45454545     0.50687210     0.31941913
     0.45454545     0.59020543     0.31941913
     0.45454545     0.67353877     0.31941913
     0.45454545     0.75687210     0.31941913
     0.45454545     0.84020543     0.31941913