Generated by Twist2D
    1.0
      89.01899014       0.00000000       0.00000000
       0.00000000      66.45729493       0.00000000
       0.00000000       0.00000000      20.00000000
    P
    3244
Direct
     0.01851852     0.03879510     0.42564718
     0.01851852     0.10546177     0.42564718
     0.01851852     0.17212843     0.42564718
     0.01851852     0.23879510     0.42564718
     0.01851852     0.30546177     0.42564718
     0.01851852     0.37212843     0.42564718
     0.01851852     0.43879510     0.42564718
     0.01851852     0.50546177     0.42564718
     0.01851852     0.57212843     0.42564718
     0.01851852     0.63879510     0.42564718
     0.01851852     0.70546177     0.42564718
     0.01851852     0.77212843     0.42564718
     0.01851852     0.83879510     0.42564718
     0.01851852     0.90546177     0.42564718
     0.01851852     0.97212843     0.42564718
     0.05555556     0.03879510     0.42564718
     0.05555556     0.10546177     0.42564718
     0.05555556     0.17212843     0.42564718
     0.05555556     0.23879510     0.42564718
     0.05555556     0.30546177     0.42564718
     0.05555556     0.37212843     0.42564718
     0.05555556     0.43879510     0.42564718
     0.05555556     0.50546177     0.42564718
     0.05555556     0.57212843     0.42564718
     0.05555556     0.63879510     0.42564718
     0.05555556     0.70546177     0.42564718
     0.05555556     0.77212843     0.42564718
     0.05555556     0.83879510     0.42564718
     0.05555556     0.90546177     0.42564718
     0.05555556     0.97212843     0.42564718
     0.09259259     0.03879510     0.42564718
     0.09259259     0.10546177     0.42564718
     0.09259259     0.17212843     0.42564718
     0.09259259     0.23879510     0.42564718
     0.09259259     0.30546177     0.42564718
     0.09259259     0.37212843     0.42564718
     0.09259259     0.43879510     0.42564718
     0.09259259     0.50546177     0.42564718
     0.09259259     0.57212843     0.42564718
     0.09259259     0.63879510     0.42564718
     0.09259259     0.70546177     0.42564718
     0.09259259     0.77212843     0.42564718
     0.09259259     0.83879510     0.42564718
     0.09259259     0.90546177     0.42564718
     0.09259259     0.97212843     0.42564718
     0.12962963     0.03879510     0.42564718
     0.12962963     0.10546177     0.42564718
     0.12962963     0.17212843     0.42564718
     0.12962963     0.23879510     0.42564718
     0.12962963     0.30546177     0.42564718
     0.12962963     0.37212843     0.42564718
     0.12962963     0.43879510     0.42564718
     0.12962963     0.50546177     0.42564718
     0.12962963     0.57212843     0.42564718
     0.12962963     0.63879510     0.42564718
     0.12962963     0.70546177     0.42564718
     0.12962963     0.77212843     0.42564718
     0.12962963     0.83879510     0.42564718
     0.12962963     0.90546177     0.42564718
     0.12962963     0.97212843     0.42564718
     0.16666667     0.03879510     0.42564718
     0.16666667     0.10546177     0.42564718
     0.16666667     0.17212843     0.42564718
     0.16666667     0.23879510     0.42564718
     0.16666667     0.30546177     0.42564718
     0.16666667     0.37212843     0.42564718
     0.16666667     0.43879510     0.42564718
     0.16666667     0.50546177     0.42564718
     0.16666667     0.57212843     0.42564718
     0.16666667     0.63879510     0.42564718
     0.16666667     0.70546177     0.42564718
     0.16666667     0.77212843     0.42564718
     0.16666667     0.83879510     0.42564718
     0.16666667     0.90546177     0.42564718
     0.16666667     0.97212843     0.42564718
     0.20370370     0.03879510     0.42564718
     0.20370370     0.10546177     0.42564718
     0.20370370     0.17212843     0.42564718
     0.20370370     0.23879510     0.42564718
     0.20370370     0.30546177     0.42564718
     0.20370370     0.37212843     0.42564718
     0.20370370     0.43879510     0.42564718
     0.20370370     0.50546177     0.42564718
     0.20370370     0.57212843     0.42564718
     0.20370370     0.63879510     0.42564718
     0.20370370     0.70546177     0.42564718
     0.20370370     0.77212843     0.42564718
     0.20370370     0.83879510     0.42564718
     0.20370370     0.90546177     0.42564718
     0.20370370     0.97212843     0.42564718
     0.24074074     0.03879510     0.42564718
     0.24074074     0.10546177     0.42564718
     0.24074074     0.17212843     0.42564718
     0.24074074     0.23879510     0.42564718
     0.24074074     0.30546177     0.42564718
     0.24074074     0.37212843     0.42564718
     0.24074074     0.43879510     0.42564718
     0.24074074     0.50546177     0.42564718
     0.24074074     0.57212843     0.42564718
     0.24074074     0.63879510     0.42564718
     0.24074074     0.70546177     0.42564718
     0.24074074     0.77212843     0.42564718
     0.24074074     0.83879510     0.42564718
     0.24074074     0.90546177     0.42564718
     0.24074074     0.97212843     0.42564718
     0.27777778     0.03879510     0.42564718
     0.27777778     0.10546177     0.42564718
     0.27777778     0.17212843     0.42564718
     0.27777778     0.23879510     0.42564718
     0.27777778     0.30546177     0.42564718
     0.27777778     0.37212843     0.42564718
     0.27777778     0.43879510     0.42564718
     0.27777778     0.50546177     0.42564718
     0.27777778     0.57212843     0.42564718
     0.27777778     0.63879510     0.42564718
     0.27777778     0.70546177     0.42564718
     0.27777778     0.77212843     0.42564718
     0.27777778     0.83879510     0.42564718
     0.27777778     0.90546177     0.42564718
     0.27777778     0.97212843     0.42564718
     0.31481481     0.03879510     0.42564718
     0.31481481     0.10546177     0.42564718
     0.31481481     0.17212843     0.42564718
     0.31481481     0.23879510     0.42564718
     0.31481481     0.30546177     0.42564718
     0.31481481     0.37212843     0.42564718
     0.31481481     0.43879510     0.42564718
     0.31481481     0.50546177     0.42564718
     0.31481481     0.57212843     0.42564718
     0.31481481     0.63879510     0.42564718
     0.31481481     0.70546177     0.42564718
     0.31481481     0.77212843     0.42564718
     0.31481481     0.83879510     0.42564718
     0.31481481     0.90546177     0.42564718
     0.31481481     0.97212843     0.42564718
     0.35185185     0.03879510     0.42564718
     0.35185185     0.10546177     0.42564718
     0.35185185     0.17212843     0.42564718
     0.35185185     0.23879510     0.42564718
     0.35185185     0.30546177     0.42564718
     0.35185185     0.37212843     0.42564718
     0.35185185     0.43879510     0.42564718
     0.35185185     0.50546177     0.42564718
     0.35185185     0.57212843     0.42564718
     0.35185185     0.63879510     0.42564718
     0.35185185     0.70546177     0.42564718
     0.35185185     0.77212843     0.42564718
     0.35185185     0.83879510     0.42564718
     0.35185185     0.90546177     0.42564718
     0.35185185     0.97212843     0.42564718
     0.38888889     0.03879510     0.42564718
     0.38888889     0.10546177     0.42564718
     0.38888889     0.17212843     0.42564718
     0.38888889     0.23879510     0.42564718
     0.38888889     0.30546177     0.42564718
     0.38888889     0.37212843     0.42564718
     0.38888889     0.43879510     0.42564718
     0.38888889     0.50546177     0.42564718
     0.38888889     0.57212843     0.42564718
     0.38888889     0.63879510     0.42564718
     0.38888889     0.70546177     0.42564718
     0.38888889     0.77212843     0.42564718
     0.38888889     0.83879510     0.42564718
     0.38888889     0.90546177     0.42564718
     0.38888889     0.97212843     0.42564718
     0.42592593     0.03879510     0.42564718
     0.42592593     0.10546177     0.42564718
     0.42592593     0.17212843     0.42564718
     0.42592593     0.23879510     0.42564718
     0.42592593     0.30546177     0.42564718
     0.42592593     0.37212843     0.42564718
     0.42592593     0.43879510     0.42564718
     0.42592593     0.50546177     0.42564718
     0.42592593     0.57212843     0.42564718
     0.42592593     0.63879510     0.42564718
     0.42592593     0.70546177     0.42564718
     0.42592593     0.77212843     0.42564718
     0.42592593     0.83879510     0.42564718
     0.42592593     0.90546177     0.42564718
     0.42592593     0.97212843     0.42564718
     0.46296296     0.03879510     0.42564718
     0.46296296     0.10546177     0.42564718
     0.46296296     0.17212843     0.42564718
     0.46296296     0.23879510     0.42564718
     0.46296296     0.30546177     0.42564718
     0.46296296     0.37212843     0.42564718
     0.46296296     0.43879510     0.42564718
     0.46296296     0.50546177     0.42564718
     0.46296296     0.57212843     0.42564718
     0.46296296     0.63879510     0.42564718
     0.46296296     0.70546177     0.42564718
     0.46296296     0.77212843     0.42564718
     0.46296296     0.83879510     0.42564718
     0.46296296     0.90546177     0.42564718
     0.46296296     0.97212843     0.42564718
     0.50000000     0.03879510     0.42564718
     0.50000000     0.10546177     0.42564718
     0.50000000     0.17212843     0.42564718
     0.50000000     0.23879510     0.42564718
     0.50000000     0.30546177     0.42564718
     0.50000000     0.37212843     0.42564718
     0.50000000     0.43879510     0.42564718
     0.50000000     0.50546177     0.42564718
     0.50000000     0.57212843     0.42564718
     0.50000000     0.63879510     0.42564718
     0.50000000     0.70546177     0.42564718
     0.50000000     0.77212843     0.42564718
     0.50000000     0.83879510     0.42564718
     0.50000000     0.90546177     0.42564718
     0.50000000     0.97212843     0.42564718
     0.53703704     0.03879510     0.42564718
     0.53703704     0.10546177     0.42564718
     0.53703704     0.17212843     0.42564718
     0.53703704     0.23879510     0.42564718
     0.53703704     0.30546177     0.42564718
     0.53703704     0.37212843     0.42564718
     0.53703704     0.43879510     0.42564718
     0.53703704     0.50546177     0.42564718
     0.53703704     0.57212843     0.42564718
     0.53703704     0.63879510     0.42564718
     0.53703704     0.70546177     0.42564718
     0.53703704     0.77212843     0.42564718
     0.53703704     0.83879510     0.42564718
     0.53703704     0.90546177     0.42564718
     0.53703704     0.97212843     0.42564718
     0.57407407     0.03879510     0.42564718
     0.57407407     0.10546177     0.42564718
     0.57407407     0.17212843     0.42564718
     0.57407407     0.23879510     0.42564718
     0.57407407     0.30546177     0.42564718
     0.57407407     0.37212843     0.42564718
     0.57407407     0.43879510     0.42564718
     0.57407407     0.50546177     0.42564718
     0.57407407     0.57212843     0.42564718
     0.57407407     0.63879510     0.42564718
     0.57407407     0.70546177     0.42564718
     0.57407407     0.77212843     0.42564718
     0.57407407     0.83879510     0.42564718
     0.57407407     0.90546177     0.42564718
     0.57407407     0.97212843     0.42564718
     0.61111111     0.03879510     0.42564718
     0.61111111     0.10546177     0.42564718
     0.61111111     0.17212843     0.42564718
     0.61111111     0.23879510     0.42564718
     0.61111111     0.30546177     0.42564718
     0.61111111     0.37212843     0.42564718
     0.61111111     0.43879510     0.42564718
     0.61111111     0.50546177     0.42564718
     0.61111111     0.57212843     0.42564718
     0.61111111     0.63879510     0.42564718
     0.61111111     0.70546177     0.42564718
     0.61111111     0.77212843     0.42564718
     0.61111111     0.83879510     0.42564718
     0.61111111     0.90546177     0.42564718
     0.61111111     0.97212843     0.42564718
     0.64814815     0.03879510     0.42564718
     0.64814815     0.10546177     0.42564718
     0.64814815     0.17212843     0.42564718
     0.64814815     0.23879510     0.42564718
     0.64814815     0.30546177     0.42564718
     0.64814815     0.37212843     0.42564718
     0.64814815     0.43879510     0.42564718
     0.64814815     0.50546177     0.42564718
     0.64814815     0.57212843     0.42564718
     0.64814815     0.63879510     0.42564718
     0.64814815     0.70546177     0.42564718
     0.64814815     0.77212843     0.42564718
     0.64814815     0.83879510     0.42564718
     0.64814815     0.90546177     0.42564718
     0.64814815     0.97212843     0.42564718
     0.68518519     0.03879510     0.42564718
     0.68518519     0.10546177     0.42564718
     0.68518519     0.17212843     0.42564718
     0.68518519     0.23879510     0.42564718
     0.68518519     0.30546177     0.42564718
     0.68518519     0.37212843     0.42564718
     0.68518519     0.43879510     0.42564718
     0.68518519     0.50546177     0.42564718
     0.68518519     0.57212843     0.42564718
     0.68518519     0.63879510     0.42564718
     0.68518519     0.70546177     0.42564718
     0.68518519     0.77212843     0.42564718
     0.68518519     0.83879510     0.42564718
     0.68518519     0.90546177     0.42564718
     0.68518519     0.97212843     0.42564718
     0.72222222     0.03879510     0.42564718
     0.72222222     0.10546177     0.42564718
     0.72222222     0.17212843     0.42564718
     0.72222222     0.23879510     0.42564718
     0.72222222     0.30546177     0.42564718
     0.72222222     0.37212843     0.42564718
     0.72222222     0.43879510     0.42564718
     0.72222222     0.50546177     0.42564718
     0.72222222     0.57212843     0.42564718
     0.72222222     0.63879510     0.42564718
     0.72222222     0.70546177     0.42564718
     0.72222222     0.77212843     0.42564718
     0.72222222     0.83879510     0.42564718
     0.72222222     0.90546177     0.42564718
     0.72222222     0.97212843     0.42564718
     0.75925926     0.03879510     0.42564718
     0.75925926     0.10546177     0.42564718
     0.75925926     0.17212843     0.42564718
     0.75925926     0.23879510     0.42564718
     0.75925926     0.30546177     0.42564718
     0.75925926     0.37212843     0.42564718
     0.75925926     0.43879510     0.42564718
     0.75925926     0.50546177     0.42564718
     0.75925926     0.57212843     0.42564718
     0.75925926     0.63879510     0.42564718
     0.75925926     0.70546177     0.42564718
     0.75925926     0.77212843     0.42564718
     0.75925926     0.83879510     0.42564718
     0.75925926     0.90546177     0.42564718
     0.75925926     0.97212843     0.42564718
     0.79629630     0.03879510     0.42564718
     0.79629630     0.10546177     0.42564718
     0.79629630     0.17212843     0.42564718
     0.79629630     0.23879510     0.42564718
     0.79629630     0.30546177     0.42564718
     0.79629630     0.37212843     0.42564718
     0.79629630     0.43879510     0.42564718
     0.79629630     0.50546177     0.42564718
     0.79629630     0.57212843     0.42564718
     0.79629630     0.63879510     0.42564718
     0.79629630     0.70546177     0.42564718
     0.79629630     0.77212843     0.42564718
     0.79629630     0.83879510     0.42564718
     0.79629630     0.90546177     0.42564718
     0.79629630     0.97212843     0.42564718
     0.83333333     0.03879510     0.42564718
     0.83333333     0.10546177     0.42564718
     0.83333333     0.17212843     0.42564718
     0.83333333     0.23879510     0.42564718
     0.83333333     0.30546177     0.42564718
     0.83333333     0.37212843     0.42564718
     0.83333333     0.43879510     0.42564718
     0.83333333     0.50546177     0.42564718
     0.83333333     0.57212843     0.42564718
     0.83333333     0.63879510     0.42564718
     0.83333333     0.70546177     0.42564718
     0.83333333     0.77212843     0.42564718
     0.83333333     0.83879510     0.42564718
     0.83333333     0.90546177     0.42564718
     0.83333333     0.97212843     0.42564718
     0.87037037     0.03879510     0.42564718
     0.87037037     0.10546177     0.42564718
     0.87037037     0.17212843     0.42564718
     0.87037037     0.23879510     0.42564718
     0.87037037     0.30546177     0.42564718
     0.87037037     0.37212843     0.42564718
     0.87037037     0.43879510     0.42564718
     0.87037037     0.50546177     0.42564718
     0.87037037     0.57212843     0.42564718
     0.87037037     0.63879510     0.42564718
     0.87037037     0.70546177     0.42564718
     0.87037037     0.77212843     0.42564718
     0.87037037     0.83879510     0.42564718
     0.87037037     0.90546177     0.42564718
     0.87037037     0.97212843     0.42564718
     0.90740741     0.03879510     0.42564718
     0.90740741     0.10546177     0.42564718
     0.90740741     0.17212843     0.42564718
     0.90740741     0.23879510     0.42564718
     0.90740741     0.30546177     0.42564718
     0.90740741     0.37212843     0.42564718
     0.90740741     0.43879510     0.42564718
     0.90740741     0.50546177     0.42564718
     0.90740741     0.57212843     0.42564718
     0.90740741     0.63879510     0.42564718
     0.90740741     0.70546177     0.42564718
     0.90740741     0.77212843     0.42564718
     0.90740741     0.83879510     0.42564718
     0.90740741     0.90546177     0.42564718
     0.90740741     0.97212843     0.42564718
     0.94444444     0.03879510     0.42564718
     0.94444444     0.10546177     0.42564718
     0.94444444     0.17212843     0.42564718
     0.94444444     0.23879510     0.42564718
     0.94444444     0.30546177     0.42564718
     0.94444444     0.37212843     0.42564718
     0.94444444     0.43879510     0.42564718
     0.94444444     0.50546177     0.42564718
     0.94444444     0.57212843     0.42564718
     0.94444444     0.63879510     0.42564718
     0.94444444     0.70546177     0.42564718
     0.94444444     0.77212843     0.42564718
     0.94444444     0.83879510     0.42564718
     0.94444444     0.90546177     0.42564718
     0.94444444     0.97212843     0.42564718
     0.98148148     0.03879510     0.42564718
     0.98148148     0.10546177     0.42564718
     0.98148148     0.17212843     0.42564718
     0.98148148     0.23879510     0.42564718
     0.98148148     0.30546177     0.42564718
     0.98148148     0.37212843     0.42564718
     0.98148148     0.43879510     0.42564718
     0.98148148     0.50546177     0.42564718
     0.98148148     0.57212843     0.42564718
     0.98148148     0.63879510     0.42564718
     0.98148148     0.70546177     0.42564718
     0.98148148     0.77212843     0.42564718
     0.98148148     0.83879510     0.42564718
     0.98148148     0.90546177     0.42564718
     0.98148148     0.97212843     0.42564718
     0.01851852     0.02783565     0.31941913
     0.01851852     0.09450232     0.31941913
     0.01851852     0.16116899     0.31941913
     0.01851852     0.22783565     0.31941913
     0.01851852     0.29450232     0.31941913
     0.01851852     0.36116899     0.31941913
     0.01851852     0.42783565     0.31941913
     0.01851852     0.49450232     0.31941913
     0.01851852     0.56116899     0.31941913
     0.01851852     0.62783565     0.31941913
     0.01851852     0.69450232     0.31941913
     0.01851852     0.76116899     0.31941913
     0.01851852     0.82783565     0.31941913
     0.01851852     0.89450232     0.31941913
     0.01851852     0.96116899     0.31941913
     0.05555556     0.02783565     0.31941913
     0.05555556     0.09450232     0.31941913
     0.05555556     0.16116899     0.31941913
     0.05555556     0.22783565     0.31941913
     0.05555556     0.29450232     0.31941913
     0.05555556     0.36116899     0.31941913
     0.05555556     0.42783565     0.31941913
     0.05555556     0.49450232     0.31941913
     0.05555556     0.56116899     0.31941913
     0.05555556     0.62783565     0.31941913
     0.05555556     0.69450232     0.31941913
     0.05555556     0.76116899     0.31941913
     0.05555556     0.82783565     0.31941913
     0.05555556     0.89450232     0.31941913
     0.05555556     0.96116899     0.31941913
     0.09259259     0.02783565     0.31941913
     0.09259259     0.09450232     0.31941913
     0.09259259     0.16116899     0.31941913
     0.09259259     0.22783565     0.31941913
     0.09259259     0.29450232     0.31941913
     0.09259259     0.36116899     0.31941913
     0.09259259     0.42783565     0.31941913
     0.09259259     0.49450232     0.31941913
     0.09259259     0.56116899     0.31941913
     0.09259259     0.62783565     0.31941913
     0.09259259     0.69450232     0.31941913
     0.09259259     0.76116899     0.31941913
     0.09259259     0.82783565     0.31941913
     0.09259259     0.89450232     0.31941913
     0.09259259     0.96116899     0.31941913
     0.12962963     0.02783565     0.31941913
     0.12962963     0.09450232     0.31941913
     0.12962963     0.16116899     0.31941913
     0.12962963     0.22783565     0.31941913
     0.12962963     0.29450232     0.31941913
     0.12962963     0.36116899     0.31941913
     0.12962963     0.42783565     0.31941913
     0.12962963     0.49450232     0.31941913
     0.12962963     0.56116899     0.31941913
     0.12962963     0.62783565     0.31941913
     0.12962963     0.69450232     0.31941913
     0.12962963     0.76116899     0.31941913
     0.12962963     0.82783565     0.31941913
     0.12962963     0.89450232     0.31941913
     0.12962963     0.96116899     0.31941913
     0.16666667     0.02783565     0.31941913
     0.16666667     0.09450232     0.31941913
     0.16666667     0.16116899     0.31941913
     0.16666667     0.22783565     0.31941913
     0.16666667     0.29450232     0.31941913
     0.16666667     0.36116899     0.31941913
     0.16666667     0.42783565     0.31941913
     0.16666667     0.49450232     0.31941913
     0.16666667     0.56116899     0.31941913
     0.16666667     0.62783565     0.31941913
     0.16666667     0.69450232     0.31941913
     0.16666667     0.76116899     0.31941913
     0.16666667     0.82783565     0.31941913
     0.16666667     0.89450232     0.31941913
     0.16666667     0.96116899     0.31941913
     0.20370370     0.02783565     0.31941913
     0.20370370     0.09450232     0.31941913
     0.20370370     0.16116899     0.31941913
     0.20370370     0.22783565     0.31941913
     0.20370370     0.29450232     0.31941913
     0.20370370     0.36116899     0.31941913
     0.20370370     0.42783565     0.31941913
     0.20370370     0.49450232     0.31941913
     0.20370370     0.56116899     0.31941913
     0.20370370     0.62783565     0.31941913
     0.20370370     0.69450232     0.31941913
     0.20370370     0.76116899     0.31941913
     0.20370370     0.82783565     0.31941913
     0.20370370     0.89450232     0.31941913
     0.20370370     0.96116899     0.31941913
     0.24074074     0.02783565     0.31941913
     0.24074074     0.09450232     0.31941913
     0.24074074     0.16116899     0.31941913
     0.24074074     0.22783565     0.31941913
     0.24074074     0.29450232     0.31941913
     0.24074074     0.36116899     0.31941913
     0.24074074     0.42783565     0.31941913
     0.24074074     0.49450232     0.31941913
     0.24074074     0.56116899     0.31941913
     0.24074074     0.62783565     0.31941913
     0.24074074     0.69450232     0.31941913
     0.24074074     0.76116899     0.31941913
     0.24074074     0.82783565     0.31941913
     0.24074074     0.89450232     0.31941913
     0.24074074     0.96116899     0.31941913
     0.27777778     0.02783565     0.31941913
     0.27777778     0.09450232     0.31941913
     0.27777778     0.16116899     0.31941913
     0.27777778     0.22783565     0.31941913
     0.27777778     0.29450232     0.31941913
     0.27777778     0.36116899     0.31941913
     0.27777778     0.42783565     0.31941913
     0.27777778     0.49450232     0.31941913
     0.27777778     0.56116899     0.31941913
     0.27777778     0.62783565     0.31941913
     0.27777778     0.69450232     0.31941913
     0.27777778     0.76116899     0.31941913
     0.27777778     0.82783565     0.31941913
     0.27777778     0.89450232     0.31941913
     0.27777778     0.96116899     0.31941913
     0.31481481     0.02783565     0.31941913
     0.31481481     0.09450232     0.31941913
     0.31481481     0.16116899     0.31941913
     0.31481481     0.22783565     0.31941913
     0.31481481     0.29450232     0.31941913
     0.31481481     0.36116899     0.31941913
     0.31481481     0.42783565     0.31941913
     0.31481481     0.49450232     0.31941913
     0.31481481     0.56116899     0.31941913
     0.31481481     0.62783565     0.31941913
     0.31481481     0.69450232     0.31941913
     0.31481481     0.76116899     0.31941913
     0.31481481     0.82783565     0.31941913
     0.31481481     0.89450232     0.31941913
     0.31481481     0.96116899     0.31941913
     0.35185185     0.02783565     0.31941913
     0.35185185     0.09450232     0.31941913
     0.35185185     0.16116899     0.31941913
     0.35185185     0.22783565     0.31941913
     0.35185185     0.29450232     0.31941913
     0.35185185     0.36116899     0.31941913
     0.35185185     0.42783565     0.31941913
     0.35185185     0.49450232     0.31941913
     0.35185185     0.56116899     0.31941913
     0.35185185     0.62783565     0.31941913
     0.35185185     0.69450232     0.31941913
     0.35185185     0.76116899     0.31941913
     0.35185185     0.82783565     0.31941913
     0.35185185     0.89450232     0.31941913
     0.35185185     0.96116899     0.31941913
     0.38888889     0.02783565     0.31941913
     0.38888889     0.09450232     0.31941913
     0.38888889     0.16116899     0.31941913
     0.38888889     0.22783565     0.31941913
     0.38888889     0.29450232     0.31941913
     0.38888889     0.36116899     0.31941913
     0.38888889     0.42783565     0.31941913
     0.38888889     0.49450232     0.31941913
     0.38888889     0.56116899     0.31941913
     0.38888889     0.62783565     0.31941913
     0.38888889     0.69450232     0.31941913
     0.38888889     0.76116899     0.31941913
     0.38888889     0.82783565     0.31941913
     0.38888889     0.89450232     0.31941913
     0.38888889     0.96116899     0.31941913
     0.42592593     0.02783565     0.31941913
     0.42592593     0.09450232     0.31941913
     0.42592593     0.16116899     0.31941913
     0.42592593     0.22783565     0.31941913
     0.42592593     0.29450232     0.31941913
     0.42592593     0.36116899     0.31941913
     0.42592593     0.42783565     0.31941913
     0.42592593     0.49450232     0.31941913
     0.42592593     0.56116899     0.31941913
     0.42592593     0.62783565     0.31941913
     0.42592593     0.69450232     0.31941913
     0.42592593     0.76116899     0.31941913
     0.42592593     0.82783565     0.31941913
     0.42592593     0.89450232     0.31941913
     0.42592593     0.96116899     0.31941913
     0.46296296     0.02783565     0.31941913
     0.46296296     0.09450232     0.31941913
     0.46296296     0.16116899     0.31941913
     0.46296296     0.22783565     0.31941913
     0.46296296     0.29450232     0.31941913
     0.46296296     0.36116899     0.31941913
     0.46296296     0.42783565     0.31941913
     0.46296296     0.49450232     0.31941913
     0.46296296     0.56116899     0.31941913
     0.46296296     0.62783565     0.31941913
     0.46296296     0.69450232     0.31941913
     0.46296296     0.76116899     0.31941913
     0.46296296     0.82783565     0.31941913
     0.46296296     0.89450232     0.31941913
     0.46296296     0.96116899     0.31941913
     0.50000000     0.02783565     0.31941913
     0.50000000     0.09450232     0.31941913
     0.50000000     0.16116899     0.31941913
     0.50000000     0.22783565     0.31941913
     0.50000000     0.29450232     0.31941913
     0.50000000     0.36116899     0.31941913
     0.50000000     0.42783565     0.31941913
     0.50000000     0.49450232     0.31941913
     0.50000000     0.56116899     0.31941913
     0.50000000     0.62783565     0.31941913
     0.50000000     0.69450232     0.31941913
     0.50000000     0.76116899     0.31941913
     0.50000000     0.82783565     0.31941913
     0.50000000     0.89450232     0.31941913
     0.50000000     0.96116899     0.31941913
     0.53703704     0.02783565     0.31941913
     0.53703704     0.09450232     0.31941913
     0.53703704     0.16116899     0.31941913
     0.53703704     0.22783565     0.31941913
     0.53703704     0.29450232     0.31941913
     0.53703704     0.36116899     0.31941913
     0.53703704     0.42783565     0.31941913
     0.53703704     0.49450232     0.31941913
     0.53703704     0.56116899     0.31941913
     0.53703704     0.62783565     0.31941913
     0.53703704     0.69450232     0.31941913
     0.53703704     0.76116899     0.31941913
     0.53703704     0.82783565     0.31941913
     0.53703704     0.89450232     0.31941913
     0.53703704     0.96116899     0.31941913
     0.57407407     0.02783565     0.31941913
     0.57407407     0.09450232     0.31941913
     0.57407407     0.16116899     0.31941913
     0.57407407     0.22783565     0.31941913
     0.57407407     0.29450232     0.31941913
     0.57407407     0.36116899     0.31941913
     0.57407407     0.42783565     0.31941913
     0.57407407     0.49450232     0.31941913
     0.57407407     0.56116899     0.31941913
     0.57407407     0.62783565     0.31941913
     0.57407407     0.69450232     0.31941913
     0.57407407     0.76116899     0.31941913
     0.57407407     0.82783565     0.31941913
     0.57407407     0.89450232     0.31941913
     0.57407407     0.96116899     0.31941913
     0.61111111     0.02783565     0.31941913
     0.61111111     0.09450232     0.31941913