Generated by Twist2D
    1.0
      85.72199051       0.00000000       0.00000000
       0.00000000      62.02680860       0.00000000
       0.00000000       0.00000000      20.00000000
    P
    2916
Direct
     0.01923077     0.04156618     0.42564718
     0.01923077     0.11299475     0.42564718
     0.01923077     0.18442332     0.42564718
     0.01923077     0.25585189     0.42564718
     0.01923077     0.32728047     0.42564718
     0.01923077     0.39870904     0.42564718
     0.01923077     0.47013761     0.42564718
     0.01923077     0.54156618     0.42564718
     0.01923077     0.61299475     0.42564718
     0.01923077     0.68442332     0.42564718
     0.01923077     0.75585189     0.42564718
     0.01923077     0.82728047     0.42564718
     0.01923077     0.89870904     0.42564718
     0.01923077     0.97013761     0.42564718
     0.05769231     0.04156618     0.42564718
     0.05769231     0.11299475     0.42564718
     0.05769231     0.18442332     0.42564718
     0.05769231     0.25585189     0.42564718
     0.05769231     0.32728047     0.42564718
     0.05769231     0.39870904     0.42564718
     0.05769231     0.47013761     0.42564718
     0.05769231     0.54156618     0.42564718
     0.05769231     0.61299475     0.42564718
     0.05769231     0.68442332     0.42564718
     0.05769231     0.75585189     0.42564718
     0.05769231     0.82728047     0.42564718
     0.05769231     0.89870904     0.42564718
     0.05769231     0.97013761     0.42564718
     0.09615385     0.04156618     0.42564718
     0.09615385     0.11299475     0.42564718
     0.09615385     0.18442332     0.42564718
     0.09615385     0.25585189     0.42564718
     0.09615385     0.32728047     0.42564718
     0.09615385     0.39870904     0.42564718
     0.09615385     0.47013761     0.42564718
     0.09615385     0.54156618     0.42564718
     0.09615385     0.61299475     0.42564718
     0.09615385     0.68442332     0.42564718
     0.09615385     0.75585189     0.42564718
     0.09615385     0.82728047     0.42564718
     0.09615385     0.89870904     0.42564718
     0.09615385     0.97013761     0.42564718
     0.13461538     0.04156618     0.42564718
     0.13461538     0.11299475     0.42564718
     0.13461538     0.18442332     0.42564718
     0.13461538     0.25585189     0.42564718
     0.13461538     0.32728047     0.42564718
     0.13461538     0.39870904     0.42564718
     0.13461538     0.47013761     0.42564718
     0.13461538     0.54156618     0.42564718
     0.13461538     0.61299475     0.42564718
     0.13461538     0.68442332     0.42564718
     0.13461538     0.75585189     0.42564718
     0.13461538     0.82728047     0.42564718
     0.13461538     0.89870904     0.42564718
     0.13461538     0.97013761     0.42564718
     0.17307692     0.04156618     0.42564718
     0.17307692     0.11299475     0.42564718
     0.17307692     0.18442332     0.42564718
     0.17307692     0.25585189     0.42564718
     0.17307692     0.32728047     0.42564718
     0.17307692     0.39870904     0.42564718
     0.17307692     0.47013761     0.42564718
     0.17307692     0.54156618     0.42564718
     0.17307692     0.61299475     0.42564718
     0.17307692     0.68442332     0.42564718
     0.17307692     0.75585189     0.42564718
     0.17307692     0.82728047     0.42564718
     0.17307692     0.89870904     0.42564718
     0.17307692     0.97013761     0.42564718
     0.21153846     0.04156618     0.42564718
     0.21153846     0.11299475     0.42564718
     0.21153846     0.18442332     0.42564718
     0.21153846     0.25585189     0.42564718
     0.21153846     0.32728047     0.42564718
     0.21153846     0.39870904     0.42564718
     0.21153846     0.47013761     0.42564718
     0.21153846     0.54156618     0.42564718
     0.21153846     0.61299475     0.42564718
     0.21153846     0.68442332     0.42564718
     0.21153846     0.75585189     0.42564718
     0.21153846     0.82728047     0.42564718
     0.21153846     0.89870904     0.42564718
     0.21153846     0.97013761     0.42564718
     0.25000000     0.04156618     0.42564718
     0.25000000     0.11299475     0.42564718
     0.25000000     0.18442332     0.42564718
     0.25000000     0.25585189     0.42564718
     0.25000000     0.32728047     0.42564718
     0.25000000     0.39870904     0.42564718
     0.25000000     0.47013761     0.42564718
     0.25000000     0.54156618     0.42564718
     0.25000000     0.61299475     0.42564718
     0.25000000     0.68442332     0.42564718
     0.25000000     0.75585189     0.42564718
     0.25000000     0.82728047     0.42564718
     0.25000000     0.89870904     0.42564718
     0.25000000     0.97013761     0.42564718
     0.28846154     0.04156618     0.42564718
     0.28846154     0.11299475     0.42564718
     0.28846154     0.18442332     0.42564718
     0.28846154     0.25585189     0.42564718
     0.28846154     0.32728047     0.42564718
     0.28846154     0.39870904     0.42564718
     0.28846154     0.47013761     0.42564718
     0.28846154     0.54156618     0.42564718
     0.28846154     0.61299475     0.42564718
     0.28846154     0.68442332     0.42564718
     0.28846154     0.75585189     0.42564718
     0.28846154     0.82728047     0.42564718
     0.28846154     0.89870904     0.42564718
     0.28846154     0.97013761     0.42564718
     0.32692308     0.04156618     0.42564718
     0.32692308     0.11299475     0.42564718
     0.32692308     0.18442332     0.42564718
     0.32692308     0.25585189     0.42564718
     0.32692308     0.32728047     0.42564718
     0.32692308     0.39870904     0.42564718
     0.32692308     0.47013761     0.42564718
     0.32692308     0.54156618     0.42564718
     0.32692308     0.61299475     0.42564718
     0.32692308     0.68442332     0.42564718
     0.32692308     0.75585189     0.42564718
     0.32692308     0.82728047     0.42564718
     0.32692308     0.89870904     0.42564718
     0.32692308     0.97013761     0.42564718
     0.36538462     0.04156618     0.42564718
     0.36538462     0.11299475     0.42564718
     0.36538462     0.18442332     0.42564718
     0.36538462     0.25585189     0.42564718
     0.36538462     0.32728047     0.42564718
     0.36538462     0.39870904     0.42564718
     0.36538462     0.47013761     0.42564718
     0.36538462     0.54156618     0.42564718
     0.36538462     0.61299475     0.42564718
     0.36538462     0.68442332     0.42564718
     0.36538462     0.75585189     0.42564718
     0.36538462     0.82728047     0.42564718
     0.36538462     0.89870904     0.42564718
     0.36538462     0.97013761     0.42564718
     0.40384615     0.04156618     0.42564718
     0.40384615     0.11299475     0.42564718
     0.40384615     0.18442332     0.42564718
     0.40384615     0.25585189     0.42564718
     0.40384615     0.32728047     0.42564718
     0.40384615     0.39870904     0.42564718
     0.40384615     0.47013761     0.42564718
     0.40384615     0.54156618     0.42564718
     0.40384615     0.61299475     0.42564718
     0.40384615     0.68442332     0.42564718
     0.40384615     0.75585189     0.42564718
     0.40384615     0.82728047     0.42564718
     0.40384615     0.89870904     0.42564718
     0.40384615     0.97013761     0.42564718
     0.44230769     0.04156618     0.42564718
     0.44230769     0.11299475     0.42564718
     0.44230769     0.18442332     0.42564718
     0.44230769     0.25585189     0.42564718
     0.44230769     0.32728047     0.42564718
     0.44230769     0.39870904     0.42564718
     0.44230769     0.47013761     0.42564718
     0.44230769     0.54156618     0.42564718
     0.44230769     0.61299475     0.42564718
     0.44230769     0.68442332     0.42564718
     0.44230769     0.75585189     0.42564718
     0.44230769     0.82728047     0.42564718
     0.44230769     0.89870904     0.42564718
     0.44230769     0.97013761     0.42564718
     0.48076923     0.04156618     0.42564718
     0.48076923     0.11299475     0.42564718
     0.48076923     0.18442332     0.42564718
     0.48076923     0.25585189     0.42564718
     0.48076923     0.32728047     0.42564718
     0.48076923     0.39870904     0.42564718
     0.48076923     0.47013761     0.42564718
     0.48076923     0.54156618     0.42564718
     0.48076923     0.61299475     0.42564718
     0.48076923     0.68442332     0.42564718
     0.48076923     0.75585189     0.42564718
     0.48076923     0.82728047     0.42564718
     0.48076923     0.89870904     0.42564718
     0.48076923     0.97013761     0.42564718
     0.51923077     0.04156618     0.42564718
     0.51923077     0.11299475     0.42564718
     0.51923077     0.18442332     0.42564718
     0.51923077     0.25585189     0.42564718
     0.51923077     0.32728047     0.42564718
     0.51923077     0.39870904     0.42564718
     0.51923077     0.47013761     0.42564718
     0.51923077     0.54156618     0.42564718
     0.51923077     0.61299475     0.42564718
     0.51923077     0.68442332     0.42564718
     0.51923077     0.75585189     0.42564718
     0.51923077     0.82728047     0.42564718
     0.51923077     0.89870904     0.42564718
     0.51923077     0.97013761     0.42564718
     0.55769231     0.04156618     0.42564718
     0.55769231     0.11299475     0.42564718
     0.55769231     0.18442332     0.42564718
     0.55769231     0.25585189     0.42564718
     0.55769231     0.32728047     0.42564718
     0.55769231     0.39870904     0.42564718
     0.55769231     0.47013761     0.42564718
     0.55769231     0.54156618     0.42564718
     0.55769231     0.61299475     0.42564718
     0.55769231     0.68442332     0.42564718
     0.55769231     0.75585189     0.42564718
     0.55769231     0.82728047     0.42564718
     0.55769231     0.89870904     0.42564718
     0.55769231     0.97013761     0.42564718
     0.59615385     0.04156618     0.42564718
     0.59615385     0.11299475     0.42564718
     0.59615385     0.18442332     0.42564718
     0.59615385     0.25585189     0.42564718
     0.59615385     0.32728047     0.42564718
     0.59615385     0.39870904     0.42564718
     0.59615385     0.47013761     0.42564718
     0.59615385     0.54156618     0.42564718
     0.59615385     0.61299475     0.42564718
     0.59615385     0.68442332     0.42564718
     0.59615385     0.75585189     0.42564718
     0.59615385     0.82728047     0.42564718
     0.59615385     0.89870904     0.42564718
     0.59615385     0.97013761     0.42564718
     0.63461538     0.04156618     0.42564718
     0.63461538     0.11299475     0.42564718
     0.63461538     0.18442332     0.42564718
     0.63461538     0.25585189     0.42564718
     0.63461538     0.32728047     0.42564718
     0.63461538     0.39870904     0.42564718
     0.63461538     0.47013761     0.42564718
     0.63461538     0.54156618     0.42564718
     0.63461538     0.61299475     0.42564718
     0.63461538     0.68442332     0.42564718
     0.63461538     0.75585189     0.42564718
     0.63461538     0.82728047     0.42564718
     0.63461538     0.89870904     0.42564718
     0.63461538     0.97013761     0.42564718
     0.67307692     0.04156618     0.42564718
     0.67307692     0.11299475     0.42564718
     0.67307692     0.18442332     0.42564718
     0.67307692     0.25585189     0.42564718
     0.67307692     0.32728047     0.42564718
     0.67307692     0.39870904     0.42564718
     0.67307692     0.47013761     0.42564718
     0.67307692     0.54156618     0.42564718
     0.67307692     0.61299475     0.42564718
     0.67307692     0.68442332     0.42564718
     0.67307692     0.75585189     0.42564718
     0.67307692     0.82728047     0.42564718
     0.67307692     0.89870904     0.42564718
     0.67307692     0.97013761     0.42564718
     0.71153846     0.04156618     0.42564718
     0.71153846     0.11299475     0.42564718
     0.71153846     0.18442332     0.42564718
     0.71153846     0.25585189     0.42564718
     0.71153846     0.32728047     0.42564718
     0.71153846     0.39870904     0.42564718
     0.71153846     0.47013761     0.42564718
     0.71153846     0.54156618     0.42564718
     0.71153846     0.61299475     0.42564718
     0.71153846     0.68442332     0.42564718
     0.71153846     0.75585189     0.42564718
     0.71153846     0.82728047     0.42564718
     0.71153846     0.89870904     0.42564718
     0.71153846     0.97013761     0.42564718
     0.75000000     0.04156618     0.42564718
     0.75000000     0.11299475     0.42564718
     0.75000000     0.18442332     0.42564718
     0.75000000     0.25585189     0.42564718
     0.75000000     0.32728047     0.42564718
     0.75000000     0.39870904     0.42564718
     0.75000000     0.47013761     0.42564718
     0.75000000     0.54156618     0.42564718
     0.75000000     0.61299475     0.42564718
     0.75000000     0.68442332     0.42564718
     0.75000000     0.75585189     0.42564718
     0.75000000     0.82728047     0.42564718
     0.75000000     0.89870904     0.42564718
     0.75000000     0.97013761     0.42564718
     0.78846154     0.04156618     0.42564718
     0.78846154     0.11299475     0.42564718
     0.78846154     0.18442332     0.42564718
     0.78846154     0.25585189     0.42564718
     0.78846154     0.32728047     0.42564718
     0.78846154     0.39870904     0.42564718
     0.78846154     0.47013761     0.42564718
     0.78846154     0.54156618     0.42564718
     0.78846154     0.61299475     0.42564718
     0.78846154     0.68442332     0.42564718
     0.78846154     0.75585189     0.42564718
     0.78846154     0.82728047     0.42564718
     0.78846154     0.89870904     0.42564718
     0.78846154     0.97013761     0.42564718
     0.82692308     0.04156618     0.42564718
     0.82692308     0.11299475     0.42564718
     0.82692308     0.18442332     0.42564718
     0.82692308     0.25585189     0.42564718
     0.82692308     0.32728047     0.42564718
     0.82692308     0.39870904     0.42564718
     0.82692308     0.47013761     0.42564718
     0.82692308     0.54156618     0.42564718
     0.82692308     0.61299475     0.42564718
     0.82692308     0.68442332     0.42564718
     0.82692308     0.75585189     0.42564718
     0.82692308     0.82728047     0.42564718
     0.82692308     0.89870904     0.42564718
     0.82692308     0.97013761     0.42564718
     0.86538462     0.04156618     0.42564718
     0.86538462     0.11299475     0.42564718
     0.86538462     0.18442332     0.42564718
     0.86538462     0.25585189     0.42564718
     0.86538462     0.32728047     0.42564718
     0.86538462     0.39870904     0.42564718
     0.86538462     0.47013761     0.42564718
     0.86538462     0.54156618     0.42564718
     0.86538462     0.61299475     0.42564718
     0.86538462     0.68442332     0.42564718
     0.86538462     0.75585189     0.42564718
     0.86538462     0.82728047     0.42564718
     0.86538462     0.89870904     0.42564718
     0.86538462     0.97013761     0.42564718
     0.90384615     0.04156618     0.42564718
     0.90384615     0.11299475     0.42564718
     0.90384615     0.18442332     0.42564718
     0.90384615     0.25585189     0.42564718
     0.90384615     0.32728047     0.42564718
     0.90384615     0.39870904     0.42564718
     0.90384615     0.47013761     0.42564718
     0.90384615     0.54156618     0.42564718
     0.90384615     0.61299475     0.42564718
     0.90384615     0.68442332     0.42564718
     0.90384615     0.75585189     0.42564718
     0.90384615     0.82728047     0.42564718
     0.90384615     0.89870904     0.42564718
     0.90384615     0.97013761     0.42564718
     0.94230769     0.04156618     0.42564718
     0.94230769     0.11299475     0.42564718
     0.94230769     0.18442332     0.42564718
     0.94230769     0.25585189     0.42564718
     0.94230769     0.32728047     0.42564718
     0.94230769     0.39870904     0.42564718
     0.94230769     0.47013761     0.42564718
     0.94230769     0.54156618     0.42564718
     0.94230769     0.61299475     0.42564718
     0.94230769     0.68442332     0.42564718
     0.94230769     0.75585189     0.42564718
     0.94230769     0.82728047     0.42564718
     0.94230769     0.89870904     0.42564718
     0.94230769     0.97013761     0.42564718
     0.98076923     0.04156618     0.42564718
     0.98076923     0.11299475     0.42564718
     0.98076923     0.18442332     0.42564718
     0.98076923     0.25585189     0.42564718
     0.98076923     0.32728047     0.42564718
     0.98076923     0.39870904     0.42564718
     0.98076923     0.47013761     0.42564718
     0.98076923     0.54156618     0.42564718
     0.98076923     0.61299475     0.42564718
     0.98076923     0.68442332     0.42564718
     0.98076923     0.75585189     0.42564718
     0.98076923     0.82728047     0.42564718
     0.98076923     0.89870904     0.42564718
     0.98076923     0.97013761     0.42564718
     0.01923077     0.02982391     0.31941913
     0.01923077     0.10125249     0.31941913
     0.01923077     0.17268106     0.31941913
     0.01923077     0.24410963     0.31941913
     0.01923077     0.31553820     0.31941913
     0.01923077     0.38696677     0.31941913
     0.01923077     0.45839534     0.31941913
     0.01923077     0.52982391     0.31941913
     0.01923077     0.60125249     0.31941913
     0.01923077     0.67268106     0.31941913
     0.01923077     0.74410963     0.31941913
     0.01923077     0.81553820     0.31941913
     0.01923077     0.88696677     0.31941913
     0.01923077     0.95839534     0.31941913
     0.05769231     0.02982391     0.31941913
     0.05769231     0.10125249     0.31941913
     0.05769231     0.17268106     0.31941913
     0.05769231     0.24410963     0.31941913
     0.05769231     0.31553820     0.31941913
     0.05769231     0.38696677     0.31941913
     0.05769231     0.45839534     0.31941913
     0.05769231     0.52982391     0.31941913
     0.05769231     0.60125249     0.31941913
     0.05769231     0.67268106     0.31941913
     0.05769231     0.74410963     0.31941913
     0.05769231     0.81553820     0.31941913
     0.05769231     0.88696677     0.31941913
     0.05769231     0.95839534     0.31941913
     0.09615385     0.02982391     0.31941913
     0.09615385     0.10125249     0.31941913
     0.09615385     0.17268106     0.31941913
     0.09615385     0.24410963     0.31941913
     0.09615385     0.31553820     0.31941913
     0.09615385     0.38696677     0.31941913
     0.09615385     0.45839534     0.31941913
     0.09615385     0.52982391     0.31941913
     0.09615385     0.60125249     0.31941913
     0.09615385     0.67268106     0.31941913
     0.09615385     0.74410963     0.31941913
     0.09615385     0.81553820     0.31941913
     0.09615385     0.88696677     0.31941913
     0.09615385     0.95839534     0.31941913
     0.13461538     0.02982391     0.31941913
     0.13461538     0.10125249     0.31941913
     0.13461538     0.17268106     0.31941913
     0.13461538     0.24410963     0.31941913
     0.13461538     0.31553820     0.31941913
     0.13461538     0.38696677     0.31941913
     0.13461538     0.45839534     0.31941913
     0.13461538     0.52982391     0.31941913
     0.13461538     0.60125249     0.31941913
     0.13461538     0.67268106     0.31941913
     0.13461538     0.74410963     0.31941913
     0.13461538     0.81553820     0.31941913
     0.13461538     0.88696677     0.31941913
     0.13461538     0.95839534     0.31941913
     0.17307692     0.02982391     0.31941913
     0.17307692     0.10125249     0.31941913
     0.17307692     0.17268106     0.31941913
     0.17307692     0.24410963     0.31941913
     0.17307692     0.31553820     0.31941913
     0.17307692     0.38696677     0.31941913
     0.17307692     0.45839534     0.31941913
     0.17307692     0.52982391     0.31941913
     0.17307692     0.60125249     0.31941913
     0.17307692     0.67268106     0.31941913
     0.17307692     0.74410963     0.31941913
     0.17307692     0.81553820     0.31941913
     0.17307692     0.88696677     0.31941913
     0.17307692     0.95839534     0.31941913
     0.21153846     0.02982391     0.31941913
     0.21153846     0.10125249     0.31941913
     0.21153846     0.17268106     0.31941913
     0.21153846     0.24410963     0.31941913
     0.21153846     0.31553820     0.31941913
     0.21153846     0.38696677     0.31941913
     0.21153846     0.45839534     0.31941913
     0.21153846     0.52982391     0.31941913
     0.21153846     0.60125249     0.31941913
     0.21153846     0.67268106     0.31941913
     0.21153846     0.74410963     0.31941913
     0.21153846     0.81553820     0.31941913
     0.21153846     0.88696677     0.31941913
     0.21153846     0.95839534     0.31941913
     0.25000000     0.02982391     0.31941913
     0.25000000     0.10125249     0.31941913
     0.25000000     0.17268106     0.31941913
     0.25000000     0.24410963     0.31941913
     0.25000000     0.31553820     0.31941913
     0.25000000     0.38696677     0.31941913
     0.25000000     0.45839534     0.31941913
     0.25000000     0.52982391     0.31941913
     0.25000000     0.60125249     0.31941913
     0.25000000     0.67268106     0.31941913
     0.25000000     0.74410963     0.31941913
     0.25000000     0.81553820     0.31941913
     0.25000000     0.88696677     0.31941913
     0.25000000     0.95839534     0.31941913
     0.28846154     0.02982391     0.31941913
     0.28846154     0.10125249     0.31941913
     0.28846154     0.17268106     0.31941913
     0.28846154     0.24410963     0.31941913
     0.28846154     0.31553820     0.31941913
     0.28846154     0.38696677     0.31941913
     0.28846154     0.45839534     0.31941913
     0.28846154     0.52982391     0.31941913
     0.28846154     0.60125249     0.31941913
     0.28846154     0.67268106     0.31941913
     0.28846154     0.74410963     0.31941913
     0.28846154     0.81553820     0.31941913
     0.28846154     0.88696677     0.31941913
     0.28846154     0.95839534     0.31941913
     0.32692308     0.02982391     0.31941913
     0.32692308     0.10125249     0.31941913
     0.32692308     0.17268106     0.31941913
     0.32692308     0.24410963     0.31941913
     0.32692308     0.31553820     0.31941913
     0.32692308     0.38696677     0.31941913
     0.32692308     0.45839534     0.31941913
     0.32692308     0.52982391     0.31941913
     0.32692308     0.60125249     0.31941913
     0.32692308     0.67268106     0.31941913
     0.32692308     0.74410963     0.31941913
     0.32692308     0.81553820     0.31941913
     0.32692308     0.88696677     0.31941913
     0.32692308     0.95839534     0.31941913
     0.36538462     0.02982391     0.31941913
     0.36538462     0.10125249     0.31941913
     0.36538462     0.17268106     0.31941913
     0.36538462     0.24410963     0.31941913
     0.36538462     0.31553820     0.31941913
     0.36538462     0.38696677     0.31941913
     0.36538462     0.45839534     0.31941913
     0.36538462     0.52982391     0.31941913
     0.36538462     0.60125249     0.31941913
     0.36538462     0.67268106     0.31941913
     0.36538462     0.74410963     0.31941913
     0.36538462     0.81553820     0.31941913
     0.36538462     0.88696677     0.31941913
     0.36538462     0.95839534     0.31941913
     0.40384615     0.02982391     0.31941913
     0.40384615     0.10125249     0.31941913
     0.40384615     0.17268106     0.31941913
     0.40384615     0.24410963     0.31941913
     0.40384615     0.31553820     0.31941913
     0.40384615     0.38696677     0.31941913
     0.40384615     0.45839534     0.31941913
     0.40384615     0.52982391     0.31941913
     0.40384615     0.60125249     0.31941913
     0.40384615     0.67268106     0.31941913
     0.40384615     0.74410963     0.31941913
     0.40384615     0.81553820     0.31941913
     0.40384615     0.88696677     0.31941913
     0.40384615     0.95839534     0.31941913
     0.44230769     0.02982391     0.31941913
     0.44230769     0.10125249     0.31941913
     0.44230769     0.17268106     0.31941913
     0.44230769     0.24410963     0.31941913
     0.44230769     0.31553820     0.31941913
     0.44230769     0.38696677     0.31941913
     0.44230769     0.45839534     0.31941913
     0.44230769     0.52982391     0.31941913
     0.44230769     0.60125249     0.31941913
     0.44230769     0.67268106     0.31941913
     0.44230769     0.74410963     0.31941913
     0.44230769     0.81553820     0.31941913
     0.44230769     0.88696677     0.31941913
     0.44230769     0.95839534     0.31941913
     0.48076923     0.02982391     0.31941913
     0.48076923     0.10125249     0.31941913
     0.48076923     0.17268106     0.31941913
     0.48076923     0.24410963     0.31941913
     0.48076923     0.31553820     0.31941913
     0.48076923     0.38696677     0.31941913
     0.48076923     0.45839534     0.31941913
     0.48076923     0.52982391     0.31941913
     0.48076923     0.60125249     0.31941913
     0.48076923     0.67268106     0.31941913
     0.48076923     0.74410963     0.31941913
     0.48076923     0.81553820     0.31941913
     0.48076923     0.88696677     0.31941913
     0.48076923     0.95839534     0.31941913
     0.51923077     0.02982391     0.31941913
     0.51923077     0.10125249     0.31941913
     0.51923077     0.17268106     0.31941913
     0.51923077     0.24410963     0.31941913
     0.51923077     0.31553820     0.31941913
     0.51923077     0.38696677     0.31941913
     0.51923077     0.45839534     0.31941913
     0.51923077     0.52982391     0.31941913
     0.51923077     0.60125249     0.31941913
     0.51923077     0.67268106     0.31941913
     0.51923077     0.74410963     0.31941913
     0.51923077     0.81553820     0.31941913
     0.51923077     0.88696677     0.31941913
     0.51923077     0.95839534     0.31941913
     0.55769231     0.02982391     0.31941913
     0.55769231     0.10125249     0.31941913
     0.55769231     0.17268106     0.31941913
     0.55769231     0.24410963     0.31941913
     0.55769231     0.31553820     0.31941913
     0.55769231     0.38696677     0.31941913
     0.55769231     0.45839534     0.31941913
     0.55769231     0.52982391     0.31941913
     0.55769231     0.60125249     0.31941913
     0.55769231     0.67268106     0.31941913
     0.55769231     0.74410963     0.31941913
     0.55769231     0.81553820     0.31941913
     0.55769231     0.88696677     0.31941913
     0.55769231     0.95839534     0.31941913
     0.59615385     0.02982391     0.31941913
     0.59615385     0.10125249     0.31941913
     0.59615385     0.17268106     0.31941913
     0.59615385     0.24410963     0.31941913
     0.59615385     0.31553820     0.31941913
     0.59615385     0.38696677     0.31941913
     0.59615385     0.45839534     0.31941913
     0.59615385     0.52982391     0.31941913
     0.59615385     0.60125249     0.31941913
     0.59615385     0.67268106     0.31941913
     0.59615385     0.74410963     0.31941913
     0.59615385     0.81553820     0.31941913
     0.59615385     0.88696677     0.31941913
     0.59615385     0.95839534     0.31941913
     0.63461538     0.02982391     0.31941913
     0.63461538     0.10125249     0.31941913
     0.63461538     0.17268106     0.31941913
     0.63461538     0.24410963     0.31941913
     0.63461538     0.31553820     0.31941913
     0.63461538     0.38696677     0.31941913
     0.63461538     0.45839534     0.31941913
     0.63461538     0.52982391     0.31941913
     0.63461538     0.60125249     0.31941913
     0.63461538     0.67268106     0.31941913
     0.63461538     0.74410963     0.31941913
     0.63461538     0.81553820     0.31941913
     0.63461538     0.88696677     0.31941913
     0.63461538     0.95839534     0.31941913
     0.67307692     0.02982391     0.31941913
     0.67307692     0.10125249     0.31941913
     0.67307692     0.17268106     0.31941913
     0.67307692     0.24410963     0.31941913
     0.67307692     0.31553820     0.31941913
     0.67307692     0.38696677     0.31941913
     0.67307692     0.45839534     0.31941913
     0.67307692     0.52982391     0.31941913
     0.67307692     0.60125249     0.31941913
     0.67307692     0.67268106     0.31941913
     0.67307692     0.74410963     0.31941913
     0.67307692     0.81553820     0.31941913
     0.67307692     0.88696677     0.31941913
     0.67307692     0.95839534     0.31941913
     0.71153846     0.02982391     0.31941913
     0.71153846     0.10125249     0.31941913
     0.71153846     0.17268106     0.31941913
     0.71153846     0.24410963     0.31941913
     0.71153846     0.31553820     0.31941913
     0.71153846     0.38696677     0.31941913
     0.71153846     0.45839534     0.31941913
     0.71153846     0.52982391     0.31941913
     0.71153846     0.60125249     0.31941913
     0.71153846     0.67268106     0.31941913
     0.71153846     0.74410963     0.31941913
     0.71153846     0.81553820     0.31941913
     0.71153846     0.88696677     0.31941913
     0.71153846     0.95839534     0.31941913
     0.75000000     0.02982391     0.31941913
     0.75000000     0.10125249     0.31941913
     0.75000000     0.17268106     0.31941913
     0.75000000     0.24410963     0.31941913
     0.75000000     0.31553820     0.31941913
     0.75000000     0.38696677     0.31941913
     0.75000000     0.45839534     0.31941913
     0.75000000     0.52982391     0.31941913
     0.75000000     0.60125249     0.31941913
     0.75000000     0.67268106     0.31941913
     0.75000000     0.74410963     0.31941913
     0.75000000     0.81553820     0.31941913
     0.75000000     0.88696677     0.31941913
     0.75000000     0.95839534     0.31941913
     0.78846154     0.02982391     0.31941913
     0.78846154     0.10125249     0.31941913
     0.78846154     0.17268106     0.31941913