Generated by Twist2D
    1.0
      98.90998905       0.00000000       0.00000000
       0.00000000      70.88778126       0.00000000
       0.00000000       0.00000000      20.00000000
    P
    3844
Direct
     0.01666667     0.03637041     0.42564718
     0.01666667     0.09887041     0.42564718
     0.01666667     0.16137041     0.42564718
     0.01666667     0.22387041     0.42564718
     0.01666667     0.28637041     0.42564718
     0.01666667     0.34887041     0.42564718
     0.01666667     0.41137041     0.42564718
     0.01666667     0.47387041     0.42564718
     0.01666667     0.53637041     0.42564718
     0.01666667     0.59887041     0.42564718
     0.01666667     0.66137041     0.42564718
     0.01666667     0.72387041     0.42564718
     0.01666667     0.78637041     0.42564718
     0.01666667     0.84887041     0.42564718
     0.01666667     0.91137041     0.42564718
     0.01666667     0.97387041     0.42564718
     0.05000000     0.03637041     0.42564718
     0.05000000     0.09887041     0.42564718
     0.05000000     0.16137041     0.42564718
     0.05000000     0.22387041     0.42564718
     0.05000000     0.28637041     0.42564718
     0.05000000     0.34887041     0.42564718
     0.05000000     0.41137041     0.42564718
     0.05000000     0.47387041     0.42564718
     0.05000000     0.53637041     0.42564718
     0.05000000     0.59887041     0.42564718
     0.05000000     0.66137041     0.42564718
     0.05000000     0.72387041     0.42564718
     0.05000000     0.78637041     0.42564718
     0.05000000     0.84887041     0.42564718
     0.05000000     0.91137041     0.42564718
     0.05000000     0.97387041     0.42564718
     0.08333333     0.03637041     0.42564718
     0.08333333     0.09887041     0.42564718
     0.08333333     0.16137041     0.42564718
     0.08333333     0.22387041     0.42564718
     0.08333333     0.28637041     0.42564718
     0.08333333     0.34887041     0.42564718
     0.08333333     0.41137041     0.42564718
     0.08333333     0.47387041     0.42564718
     0.08333333     0.53637041     0.42564718
     0.08333333     0.59887041     0.42564718
     0.08333333     0.66137041     0.42564718
     0.08333333     0.72387041     0.42564718
     0.08333333     0.78637041     0.42564718
     0.08333333     0.84887041     0.42564718
     0.08333333     0.91137041     0.42564718
     0.08333333     0.97387041     0.42564718
     0.11666667     0.03637041     0.42564718
     0.11666667     0.09887041     0.42564718
     0.11666667     0.16137041     0.42564718
     0.11666667     0.22387041     0.42564718
     0.11666667     0.28637041     0.42564718
     0.11666667     0.34887041     0.42564718
     0.11666667     0.41137041     0.42564718
     0.11666667     0.47387041     0.42564718
     0.11666667     0.53637041     0.42564718
     0.11666667     0.59887041     0.42564718
     0.11666667     0.66137041     0.42564718
     0.11666667     0.72387041     0.42564718
     0.11666667     0.78637041     0.42564718
     0.11666667     0.84887041     0.42564718
     0.11666667     0.91137041     0.42564718
     0.11666667     0.97387041     0.42564718
     0.15000000     0.03637041     0.42564718
     0.15000000     0.09887041     0.42564718
     0.15000000     0.16137041     0.42564718
     0.15000000     0.22387041     0.42564718
     0.15000000     0.28637041     0.42564718
     0.15000000     0.34887041     0.42564718
     0.15000000     0.41137041     0.42564718
     0.15000000     0.47387041     0.42564718
     0.15000000     0.53637041     0.42564718
     0.15000000     0.59887041     0.42564718
     0.15000000     0.66137041     0.42564718
     0.15000000     0.72387041     0.42564718
     0.15000000     0.78637041     0.42564718
     0.15000000     0.84887041     0.42564718
     0.15000000     0.91137041     0.42564718
     0.15000000     0.97387041     0.42564718
     0.18333333     0.03637041     0.42564718
     0.18333333     0.09887041     0.42564718
     0.18333333     0.16137041     0.42564718
     0.18333333     0.22387041     0.42564718
     0.18333333     0.28637041     0.42564718
     0.18333333     0.34887041     0.42564718
     0.18333333     0.41137041     0.42564718
     0.18333333     0.47387041     0.42564718
     0.18333333     0.53637041     0.42564718
     0.18333333     0.59887041     0.42564718
     0.18333333     0.66137041     0.42564718
     0.18333333     0.72387041     0.42564718
     0.18333333     0.78637041     0.42564718
     0.18333333     0.84887041     0.42564718
     0.18333333     0.91137041     0.42564718
     0.18333333     0.97387041     0.42564718
     0.21666667     0.03637041     0.42564718
     0.21666667     0.09887041     0.42564718
     0.21666667     0.16137041     0.42564718
     0.21666667     0.22387041     0.42564718
     0.21666667     0.28637041     0.42564718
     0.21666667     0.34887041     0.42564718
     0.21666667     0.41137041     0.42564718
     0.21666667     0.47387041     0.42564718
     0.21666667     0.53637041     0.42564718
     0.21666667     0.59887041     0.42564718
     0.21666667     0.66137041     0.42564718
     0.21666667     0.72387041     0.42564718
     0.21666667     0.78637041     0.42564718
     0.21666667     0.84887041     0.42564718
     0.21666667     0.91137041     0.42564718
     0.21666667     0.97387041     0.42564718
     0.25000000     0.03637041     0.42564718
     0.25000000     0.09887041     0.42564718
     0.25000000     0.16137041     0.42564718
     0.25000000     0.22387041     0.42564718
     0.25000000     0.28637041     0.42564718
     0.25000000     0.34887041     0.42564718
     0.25000000     0.41137041     0.42564718
     0.25000000     0.47387041     0.42564718
     0.25000000     0.53637041     0.42564718
     0.25000000     0.59887041     0.42564718
     0.25000000     0.66137041     0.42564718
     0.25000000     0.72387041     0.42564718
     0.25000000     0.78637041     0.42564718
     0.25000000     0.84887041     0.42564718
     0.25000000     0.91137041     0.42564718
     0.25000000     0.97387041     0.42564718
     0.28333333     0.03637041     0.42564718
     0.28333333     0.09887041     0.42564718
     0.28333333     0.16137041     0.42564718
     0.28333333     0.22387041     0.42564718
     0.28333333     0.28637041     0.42564718
     0.28333333     0.34887041     0.42564718
     0.28333333     0.41137041     0.42564718
     0.28333333     0.47387041     0.42564718
     0.28333333     0.53637041     0.42564718
     0.28333333     0.59887041     0.42564718
     0.28333333     0.66137041     0.42564718
     0.28333333     0.72387041     0.42564718
     0.28333333     0.78637041     0.42564718
     0.28333333     0.84887041     0.42564718
     0.28333333     0.91137041     0.42564718
     0.28333333     0.97387041     0.42564718
     0.31666667     0.03637041     0.42564718
     0.31666667     0.09887041     0.42564718
     0.31666667     0.16137041     0.42564718
     0.31666667     0.22387041     0.42564718
     0.31666667     0.28637041     0.42564718
     0.31666667     0.34887041     0.42564718
     0.31666667     0.41137041     0.42564718
     0.31666667     0.47387041     0.42564718
     0.31666667     0.53637041     0.42564718
     0.31666667     0.59887041     0.42564718
     0.31666667     0.66137041     0.42564718
     0.31666667     0.72387041     0.42564718
     0.31666667     0.78637041     0.42564718
     0.31666667     0.84887041     0.42564718
     0.31666667     0.91137041     0.42564718
     0.31666667     0.97387041     0.42564718
     0.35000000     0.03637041     0.42564718
     0.35000000     0.09887041     0.42564718
     0.35000000     0.16137041     0.42564718
     0.35000000     0.22387041     0.42564718
     0.35000000     0.28637041     0.42564718
     0.35000000     0.34887041     0.42564718
     0.35000000     0.41137041     0.42564718
     0.35000000     0.47387041     0.42564718
     0.35000000     0.53637041     0.42564718
     0.35000000     0.59887041     0.42564718
     0.35000000     0.66137041     0.42564718
     0.35000000     0.72387041     0.42564718
     0.35000000     0.78637041     0.42564718
     0.35000000     0.84887041     0.42564718
     0.35000000     0.91137041     0.42564718
     0.35000000     0.97387041     0.42564718
     0.38333333     0.03637041     0.42564718
     0.38333333     0.09887041     0.42564718
     0.38333333     0.16137041     0.42564718
     0.38333333     0.22387041     0.42564718
     0.38333333     0.28637041     0.42564718
     0.38333333     0.34887041     0.42564718
     0.38333333     0.41137041     0.42564718
     0.38333333     0.47387041     0.42564718
     0.38333333     0.53637041     0.42564718
     0.38333333     0.59887041     0.42564718
     0.38333333     0.66137041     0.42564718
     0.38333333     0.72387041     0.42564718
     0.38333333     0.78637041     0.42564718
     0.38333333     0.84887041     0.42564718
     0.38333333     0.91137041     0.42564718
     0.38333333     0.97387041     0.42564718
     0.41666667     0.03637041     0.42564718
     0.41666667     0.09887041     0.42564718
     0.41666667     0.16137041     0.42564718
     0.41666667     0.22387041     0.42564718
     0.41666667     0.28637041     0.42564718
     0.41666667     0.34887041     0.42564718
     0.41666667     0.41137041     0.42564718
     0.41666667     0.47387041     0.42564718
     0.41666667     0.53637041     0.42564718
     0.41666667     0.59887041     0.42564718
     0.41666667     0.66137041     0.42564718
     0.41666667     0.72387041     0.42564718
     0.41666667     0.78637041     0.42564718
     0.41666667     0.84887041     0.42564718
     0.41666667     0.91137041     0.42564718
     0.41666667     0.97387041     0.42564718
     0.45000000     0.03637041     0.42564718
     0.45000000     0.09887041     0.42564718
     0.45000000     0.16137041     0.42564718
     0.45000000     0.22387041     0.42564718
     0.45000000     0.28637041     0.42564718
     0.45000000     0.34887041     0.42564718
     0.45000000     0.41137041     0.42564718
     0.45000000     0.47387041     0.42564718
     0.45000000     0.53637041     0.42564718
     0.45000000     0.59887041     0.42564718
     0.45000000     0.66137041     0.42564718
     0.45000000     0.72387041     0.42564718
     0.45000000     0.78637041     0.42564718
     0.45000000     0.84887041     0.42564718
     0.45000000     0.91137041     0.42564718
     0.45000000     0.97387041     0.42564718
     0.48333333     0.03637041     0.42564718
     0.48333333     0.09887041     0.42564718
     0.48333333     0.16137041     0.42564718
     0.48333333     0.22387041     0.42564718
     0.48333333     0.28637041     0.42564718
     0.48333333     0.34887041     0.42564718
     0.48333333     0.41137041     0.42564718
     0.48333333     0.47387041     0.42564718
     0.48333333     0.53637041     0.42564718
     0.48333333     0.59887041     0.42564718
     0.48333333     0.66137041     0.42564718
     0.48333333     0.72387041     0.42564718
     0.48333333     0.78637041     0.42564718
     0.48333333     0.84887041     0.42564718
     0.48333333     0.91137041     0.42564718
     0.48333333     0.97387041     0.42564718
     0.51666667     0.03637041     0.42564718
     0.51666667     0.09887041     0.42564718
     0.51666667     0.16137041     0.42564718
     0.51666667     0.22387041     0.42564718
     0.51666667     0.28637041     0.42564718
     0.51666667     0.34887041     0.42564718
     0.51666667     0.41137041     0.42564718
     0.51666667     0.47387041     0.42564718
     0.51666667     0.53637041     0.42564718
     0.51666667     0.59887041     0.42564718
     0.51666667     0.66137041     0.42564718
     0.51666667     0.72387041     0.42564718
     0.51666667     0.78637041     0.42564718
     0.51666667     0.84887041     0.42564718
     0.51666667     0.91137041     0.42564718
     0.51666667     0.97387041     0.42564718
     0.55000000     0.03637041     0.42564718
     0.55000000     0.09887041     0.42564718
     0.55000000     0.16137041     0.42564718
     0.55000000     0.22387041     0.42564718
     0.55000000     0.28637041     0.42564718
     0.55000000     0.34887041     0.42564718
     0.55000000     0.41137041     0.42564718
     0.55000000     0.47387041     0.42564718
     0.55000000     0.53637041     0.42564718
     0.55000000     0.59887041     0.42564718
     0.55000000     0.66137041     0.42564718
     0.55000000     0.72387041     0.42564718
     0.55000000     0.78637041     0.42564718
     0.55000000     0.84887041     0.42564718
     0.55000000     0.91137041     0.42564718
     0.55000000     0.97387041     0.42564718
     0.58333333     0.03637041     0.42564718
     0.58333333     0.09887041     0.42564718
     0.58333333     0.16137041     0.42564718
     0.58333333     0.22387041     0.42564718
     0.58333333     0.28637041     0.42564718
     0.58333333     0.34887041     0.42564718
     0.58333333     0.41137041     0.42564718
     0.58333333     0.47387041     0.42564718
     0.58333333     0.53637041     0.42564718
     0.58333333     0.59887041     0.42564718
     0.58333333     0.66137041     0.42564718
     0.58333333     0.72387041     0.42564718
     0.58333333     0.78637041     0.42564718
     0.58333333     0.84887041     0.42564718
     0.58333333     0.91137041     0.42564718
     0.58333333     0.97387041     0.42564718
     0.61666667     0.03637041     0.42564718
     0.61666667     0.09887041     0.42564718
     0.61666667     0.16137041     0.42564718
     0.61666667     0.22387041     0.42564718
     0.61666667     0.28637041     0.42564718
     0.61666667     0.34887041     0.42564718
     0.61666667     0.41137041     0.42564718
     0.61666667     0.47387041     0.42564718
     0.61666667     0.53637041     0.42564718
     0.61666667     0.59887041     0.42564718
     0.61666667     0.66137041     0.42564718
     0.61666667     0.72387041     0.42564718
     0.61666667     0.78637041     0.42564718
     0.61666667     0.84887041     0.42564718
     0.61666667     0.91137041     0.42564718
     0.61666667     0.97387041     0.42564718
     0.65000000     0.03637041     0.42564718
     0.65000000     0.09887041     0.42564718
     0.65000000     0.16137041     0.42564718
     0.65000000     0.22387041     0.42564718
     0.65000000     0.28637041     0.42564718
     0.65000000     0.34887041     0.42564718
     0.65000000     0.41137041     0.42564718
     0.65000000     0.47387041     0.42564718
     0.65000000     0.53637041     0.42564718
     0.65000000     0.59887041     0.42564718
     0.65000000     0.66137041     0.42564718
     0.65000000     0.72387041     0.42564718
     0.65000000     0.78637041     0.42564718
     0.65000000     0.84887041     0.42564718
     0.65000000     0.91137041     0.42564718
     0.65000000     0.97387041     0.42564718
     0.68333333     0.03637041     0.42564718
     0.68333333     0.09887041     0.42564718
     0.68333333     0.16137041     0.42564718
     0.68333333     0.22387041     0.42564718
     0.68333333     0.28637041     0.42564718
     0.68333333     0.34887041     0.42564718
     0.68333333     0.41137041     0.42564718
     0.68333333     0.47387041     0.42564718
     0.68333333     0.53637041     0.42564718
     0.68333333     0.59887041     0.42564718
     0.68333333     0.66137041     0.42564718
     0.68333333     0.72387041     0.42564718
     0.68333333     0.78637041     0.42564718
     0.68333333     0.84887041     0.42564718
     0.68333333     0.91137041     0.42564718
     0.68333333     0.97387041     0.42564718
     0.71666667     0.03637041     0.42564718
     0.71666667     0.09887041     0.42564718
     0.71666667     0.16137041     0.42564718
     0.71666667     0.22387041     0.42564718
     0.71666667     0.28637041     0.42564718
     0.71666667     0.34887041     0.42564718
     0.71666667     0.41137041     0.42564718
     0.71666667     0.47387041     0.42564718
     0.71666667     0.53637041     0.42564718
     0.71666667     0.59887041     0.42564718
     0.71666667     0.66137041     0.42564718
     0.71666667     0.72387041     0.42564718
     0.71666667     0.78637041     0.42564718
     0.71666667     0.84887041     0.42564718
     0.71666667     0.91137041     0.42564718
     0.71666667     0.97387041     0.42564718
     0.75000000     0.03637041     0.42564718
     0.75000000     0.09887041     0.42564718
     0.75000000     0.16137041     0.42564718
     0.75000000     0.22387041     0.42564718
     0.75000000     0.28637041     0.42564718
     0.75000000     0.34887041     0.42564718
     0.75000000     0.41137041     0.42564718
     0.75000000     0.47387041     0.42564718
     0.75000000     0.53637041     0.42564718
     0.75000000     0.59887041     0.42564718
     0.75000000     0.66137041     0.42564718
     0.75000000     0.72387041     0.42564718
     0.75000000     0.78637041     0.42564718
     0.75000000     0.84887041     0.42564718
     0.75000000     0.91137041     0.42564718
     0.75000000     0.97387041     0.42564718
     0.78333333     0.03637041     0.42564718
     0.78333333     0.09887041     0.42564718
     0.78333333     0.16137041     0.42564718
     0.78333333     0.22387041     0.42564718
     0.78333333     0.28637041     0.42564718
     0.78333333     0.34887041     0.42564718
     0.78333333     0.41137041     0.42564718
     0.78333333     0.47387041     0.42564718
     0.78333333     0.53637041     0.42564718
     0.78333333     0.59887041     0.42564718
     0.78333333     0.66137041     0.42564718
     0.78333333     0.72387041     0.42564718
     0.78333333     0.78637041     0.42564718
     0.78333333     0.84887041     0.42564718
     0.78333333     0.91137041     0.42564718
     0.78333333     0.97387041     0.42564718
     0.81666667     0.03637041     0.42564718
     0.81666667     0.09887041     0.42564718
     0.81666667     0.16137041     0.42564718
     0.81666667     0.22387041     0.42564718
     0.81666667     0.28637041     0.42564718
     0.81666667     0.34887041     0.42564718
     0.81666667     0.41137041     0.42564718
     0.81666667     0.47387041     0.42564718
     0.81666667     0.53637041     0.42564718
     0.81666667     0.59887041     0.42564718
     0.81666667     0.66137041     0.42564718
     0.81666667     0.72387041     0.42564718
     0.81666667     0.78637041     0.42564718
     0.81666667     0.84887041     0.42564718
     0.81666667     0.91137041     0.42564718
     0.81666667     0.97387041     0.42564718
     0.85000000     0.03637041     0.42564718
     0.85000000     0.09887041     0.42564718
     0.85000000     0.16137041     0.42564718
     0.85000000     0.22387041     0.42564718
     0.85000000     0.28637041     0.42564718
     0.85000000     0.34887041     0.42564718
     0.85000000     0.41137041     0.42564718
     0.85000000     0.47387041     0.42564718
     0.85000000     0.53637041     0.42564718
     0.85000000     0.59887041     0.42564718
     0.85000000     0.66137041     0.42564718
     0.85000000     0.72387041     0.42564718
     0.85000000     0.78637041     0.42564718
     0.85000000     0.84887041     0.42564718
     0.85000000     0.91137041     0.42564718
     0.85000000     0.97387041     0.42564718
     0.88333333     0.03637041     0.42564718
     0.88333333     0.09887041     0.42564718
     0.88333333     0.16137041     0.42564718
     0.88333333     0.22387041     0.42564718
     0.88333333     0.28637041     0.42564718
     0.88333333     0.34887041     0.42564718
     0.88333333     0.41137041     0.42564718
     0.88333333     0.47387041     0.42564718
     0.88333333     0.53637041     0.42564718
     0.88333333     0.59887041     0.42564718
     0.88333333     0.66137041     0.42564718
     0.88333333     0.72387041     0.42564718
     0.88333333     0.78637041     0.42564718
     0.88333333     0.84887041     0.42564718
     0.88333333     0.91137041     0.42564718
     0.88333333     0.97387041     0.42564718
     0.91666667     0.03637041     0.42564718
     0.91666667     0.09887041     0.42564718
     0.91666667     0.16137041     0.42564718
     0.91666667     0.22387041     0.42564718
     0.91666667     0.28637041     0.42564718
     0.91666667     0.34887041     0.42564718
     0.91666667     0.41137041     0.42564718
     0.91666667     0.47387041     0.42564718
     0.91666667     0.53637041     0.42564718
     0.91666667     0.59887041     0.42564718
     0.91666667     0.66137041     0.42564718
     0.91666667     0.72387041     0.42564718
     0.91666667     0.78637041     0.42564718
     0.91666667     0.84887041     0.42564718
     0.91666667     0.91137041     0.42564718
     0.91666667     0.97387041     0.42564718
     0.95000000     0.03637041     0.42564718
     0.95000000     0.09887041     0.42564718
     0.95000000     0.16137041     0.42564718
     0.95000000     0.22387041     0.42564718
     0.95000000     0.28637041     0.42564718
     0.95000000     0.34887041     0.42564718
     0.95000000     0.41137041     0.42564718
     0.95000000     0.47387041     0.42564718
     0.95000000     0.53637041     0.42564718
     0.95000000     0.59887041     0.42564718
     0.95000000     0.66137041     0.42564718
     0.95000000     0.72387041     0.42564718
     0.95000000     0.78637041     0.42564718
     0.95000000     0.84887041     0.42564718
     0.95000000     0.91137041     0.42564718
     0.95000000     0.97387041     0.42564718
     0.98333333     0.03637041     0.42564718
     0.98333333     0.09887041     0.42564718
     0.98333333     0.16137041     0.42564718
     0.98333333     0.22387041     0.42564718
     0.98333333     0.28637041     0.42564718
     0.98333333     0.34887041     0.42564718
     0.98333333     0.41137041     0.42564718
     0.98333333     0.47387041     0.42564718
     0.98333333     0.53637041     0.42564718
     0.98333333     0.59887041     0.42564718
     0.98333333     0.66137041     0.42564718
     0.98333333     0.72387041     0.42564718
     0.98333333     0.78637041     0.42564718
     0.98333333     0.84887041     0.42564718
     0.98333333     0.91137041     0.42564718
     0.98333333     0.97387041     0.42564718
     0.01666667     0.02609592     0.31941913
     0.01666667     0.08859592     0.31941913
     0.01666667     0.15109592     0.31941913
     0.01666667     0.21359592     0.31941913
     0.01666667     0.27609592     0.31941913
     0.01666667     0.33859592     0.31941913
     0.01666667     0.40109592     0.31941913
     0.01666667     0.46359592     0.31941913
     0.01666667     0.52609592     0.31941913
     0.01666667     0.58859592     0.31941913
     0.01666667     0.65109592     0.31941913
     0.01666667     0.71359592     0.31941913
     0.01666667     0.77609592     0.31941913
     0.01666667     0.83859592     0.31941913
     0.01666667     0.90109592     0.31941913
     0.01666667     0.96359592     0.31941913
     0.05000000     0.02609592     0.31941913
     0.05000000     0.08859592     0.31941913
     0.05000000     0.15109592     0.31941913
     0.05000000     0.21359592     0.31941913
     0.05000000     0.27609592     0.31941913
     0.05000000     0.33859592     0.31941913
     0.05000000     0.40109592     0.31941913
     0.05000000     0.46359592     0.31941913
     0.05000000     0.52609592     0.31941913
     0.05000000     0.58859592     0.31941913
     0.05000000     0.65109592     0.31941913
     0.05000000     0.71359592     0.31941913
     0.05000000     0.77609592     0.31941913
     0.05000000     0.83859592     0.31941913
     0.05000000     0.90109592     0.31941913
     0.05000000     0.96359592     0.31941913
     0.08333333     0.02609592     0.31941913
     0.08333333     0.08859592     0.31941913
     0.08333333     0.15109592     0.31941913
     0.08333333     0.21359592     0.31941913
     0.08333333     0.27609592     0.31941913
     0.08333333     0.33859592     0.31941913
     0.08333333     0.40109592     0.31941913
     0.08333333     0.46359592     0.31941913
     0.08333333     0.52609592     0.31941913
     0.08333333     0.58859592     0.31941913
     0.08333333     0.65109592     0.31941913
     0.08333333     0.71359592     0.31941913
     0.08333333     0.77609592     0.31941913
     0.08333333     0.83859592     0.31941913
     0.08333333     0.90109592     0.31941913
     0.08333333     0.96359592     0.31941913
     0.11666667     0.02609592     0.31941913
     0.11666667     0.08859592     0.31941913
     0.11666667     0.15109592     0.31941913
     0.11666667     0.21359592     0.31941913
     0.11666667     0.27609592     0.31941913
     0.11666667     0.33859592     0.31941913
     0.11666667     0.40109592     0.31941913
     0.11666667     0.46359592     0.31941913
     0.11666667     0.52609592     0.31941913
     0.11666667     0.58859592     0.31941913
     0.11666667     0.65109592     0.31941913
     0.11666667     0.71359592     0.31941913
     0.11666667     0.77609592     0.31941913
     0.11666667     0.83859592     0.31941913
     0.11666667     0.90109592     0.31941913
     0.11666667     0.96359592     0.31941913
     0.15000000     0.02609592     0.31941913
     0.15000000     0.08859592     0.31941913
     0.15000000     0.15109592     0.31941913
     0.15000000     0.21359592     0.31941913
     0.15000000     0.27609592     0.31941913
     0.15000000     0.33859592     0.31941913
     0.15000000     0.40109592     0.31941913
     0.15000000     0.46359592     0.31941913
     0.15000000     0.52609592     0.31941913
     0.15000000     0.58859592     0.31941913
     0.15000000     0.65109592     0.31941913
     0.15000000     0.71359592     0.31941913
     0.15000000     0.77609592     0.31941913
     0.15000000     0.83859592     0.31941913
     0.15000000     0.90109592     0.31941913
     0.15000000     0.96359592     0.31941913
     0.18333333     0.02609592     0.31941913
     0.18333333     0.08859592     0.31941913
     0.18333333     0.15109592     0.31941913
     0.18333333     0.21359592     0.31941913
     0.18333333     0.27609592     0.31941913
     0.18333333     0.33859592     0.31941913
     0.18333333     0.40109592     0.31941913
     0.18333333     0.46359592     0.31941913
     0.18333333     0.52609592     0.31941913
     0.18333333     0.58859592     0.31941913
     0.18333333     0.65109592     0.31941913
     0.18333333     0.71359592     0.31941913
     0.18333333     0.77609592     0.31941913
     0.18333333     0.83859592     0.31941913
     0.18333333     0.90109592     0.31941913
     0.18333333     0.96359592     0.31941913
     0.21666667     0.02609592     0.31941913
     0.21666667     0.08859592     0.31941913
     0.21666667     0.15109592     0.31941913
     0.21666667     0.21359592     0.31941913
     0.21666667     0.27609592     0.31941913
     0.21666667     0.33859592     0.31941913
     0.21666667     0.40109592     0.31941913
     0.21666667     0.46359592     0.31941913
     0.21666667     0.52609592     0.31941913
     0.21666667     0.58859592     0.31941913
     0.21666667     0.65109592     0.31941913
     0.21666667     0.71359592     0.31941913
     0.21666667     0.77609592     0.31941913
     0.21666667     0.83859592     0.31941913
     0.21666667     0.90109592     0.31941913
     0.21666667     0.96359592     0.31941913
     0.25000000     0.02609592     0.31941913
     0.25000000     0.08859592     0.31941913
     0.25000000     0.15109592     0.31941913
     0.25000000     0.21359592     0.31941913
     0.25000000     0.27609592     0.31941913
     0.25000000     0.33859592     0.31941913
     0.25000000     0.40109592     0.31941913
     0.25000000     0.46359592     0.31941913
     0.25000000     0.52609592     0.31941913
     0.25000000     0.58859592     0.31941913
     0.25000000     0.65109592     0.31941913
     0.25000000     0.71359592     0.31941913
     0.25000000     0.77609592     0.31941913
     0.25000000     0.83859592     0.31941913
     0.25000000     0.90109592     0.31941913
     0.25000000     0.96359592     0.31941913
     0.28333333     0.02609592     0.31941913
     0.28333333     0.08859592     0.31941913
     0.28333333     0.15109592     0.31941913
     0.28333333     0.21359592     0.31941913
     0.28333333     0.27609592     0.31941913
     0.28333333     0.33859592     0.31941913
     0.28333333     0.40109592     0.31941913
     0.28333333     0.46359592     0.31941913
     0.28333333     0.52609592     0.31941913
     0.28333333     0.58859592     0.31941913
     0.28333333     0.65109592     0.31941913
     0.28333333     0.71359592     0.31941913
     0.28333333     0.77609592     0.31941913
     0.28333333     0.83859592     0.31941913
     0.28333333     0.90109592     0.31941913
     0.28333333     0.96359592     0.31941913
     0.31666667     0.02609592     0.31941913
     0.31666667     0.08859592     0.31941913
     0.31666667     0.15109592     0.31941913
     0.31666667     0.21359592     0.31941913
     0.31666667     0.27609592     0.31941913
     0.31666667     0.33859592     0.31941913
     0.31666667     0.40109592     0.31941913
     0.31666667     0.46359592     0.31941913
     0.31666667     0.52609592     0.31941913
     0.31666667     0.58859592     0.31941913
     0.31666667     0.65109592     0.31941913
     0.31666667     0.71359592     0.31941913
     0.31666667     0.77609592     0.31941913
     0.31666667     0.83859592     0.31941913
     0.31666667     0.90109592     0.31941913
     0.31666667     0.96359592     0.31941913
     0.35000000     0.02609592     0.31941913
     0.35000000     0.08859592     0.31941913
     0.35000000     0.15109592     0.31941913
     0.35000000     0.21359592     0.31941913
     0.35000000     0.27609592     0.31941913
     0.35000000     0.33859592     0.31941913
     0.35000000     0.40109592     0.31941913