Generated by Twist2D
    1.0
      62.64299306       0.00000000       0.00000000
       0.00000000      44.30486329       0.00000000
       0.00000000       0.00000000      20.00000000
    P
    1524
Direct
     0.02631579     0.05826251     0.20594046
     0.02631579     0.15826251     0.20594046
     0.02631579     0.25826251     0.20594046
     0.02631579     0.35826251     0.20594046
     0.02631579     0.45826251     0.20594046
     0.02631579     0.55826251     0.20594046
     0.02631579     0.65826251     0.20594046
     0.02631579     0.75826251     0.20594046
     0.02631579     0.85826251     0.20594046
     0.02631579     0.95826251     0.20594046
     0.07894737     0.05826251     0.20594046
     0.07894737     0.15826251     0.20594046
     0.07894737     0.25826251     0.20594046
     0.07894737     0.35826251     0.20594046
     0.07894737     0.45826251     0.20594046
     0.07894737     0.55826251     0.20594046
     0.07894737     0.65826251     0.20594046
     0.07894737     0.75826251     0.20594046
     0.07894737     0.85826251     0.20594046
     0.07894737     0.95826251     0.20594046
     0.13157895     0.05826251     0.20594046
     0.13157895     0.15826251     0.20594046
     0.13157895     0.25826251     0.20594046
     0.13157895     0.35826251     0.20594046
     0.13157895     0.45826251     0.20594046
     0.13157895     0.55826251     0.20594046
     0.13157895     0.65826251     0.20594046
     0.13157895     0.75826251     0.20594046
     0.13157895     0.85826251     0.20594046
     0.13157895     0.95826251     0.20594046
     0.18421053     0.05826251     0.20594046
     0.18421053     0.15826251     0.20594046
     0.18421053     0.25826251     0.20594046
     0.18421053     0.35826251     0.20594046
     0.18421053     0.45826251     0.20594046
     0.18421053     0.55826251     0.20594046
     0.18421053     0.65826251     0.20594046
     0.18421053     0.75826251     0.20594046
     0.18421053     0.85826251     0.20594046
     0.18421053     0.95826251     0.20594046
     0.23684211     0.05826251     0.20594046
     0.23684211     0.15826251     0.20594046
     0.23684211     0.25826251     0.20594046
     0.23684211     0.35826251     0.20594046
     0.23684211     0.45826251     0.20594046
     0.23684211     0.55826251     0.20594046
     0.23684211     0.65826251     0.20594046
     0.23684211     0.75826251     0.20594046
     0.23684211     0.85826251     0.20594046
     0.23684211     0.95826251     0.20594046
     0.28947368     0.05826251     0.20594046
     0.28947368     0.15826251     0.20594046
     0.28947368     0.25826251     0.20594046
     0.28947368     0.35826251     0.20594046
     0.28947368     0.45826251     0.20594046
     0.28947368     0.55826251     0.20594046
     0.28947368     0.65826251     0.20594046
     0.28947368     0.75826251     0.20594046
     0.28947368     0.85826251     0.20594046
     0.28947368     0.95826251     0.20594046
     0.34210526     0.05826251     0.20594046
     0.34210526     0.15826251     0.20594046
     0.34210526     0.25826251     0.20594046
     0.34210526     0.35826251     0.20594046
     0.34210526     0.45826251     0.20594046
     0.34210526     0.55826251     0.20594046
     0.34210526     0.65826251     0.20594046
     0.34210526     0.75826251     0.20594046
     0.34210526     0.85826251     0.20594046
     0.34210526     0.95826251     0.20594046
     0.39473684     0.05826251     0.20594046
     0.39473684     0.15826251     0.20594046
     0.39473684     0.25826251     0.20594046
     0.39473684     0.35826251     0.20594046
     0.39473684     0.45826251     0.20594046
     0.39473684     0.55826251     0.20594046
     0.39473684     0.65826251     0.20594046
     0.39473684     0.75826251     0.20594046
     0.39473684     0.85826251     0.20594046
     0.39473684     0.95826251     0.20594046
     0.44736842     0.05826251     0.20594046
     0.44736842     0.15826251     0.20594046
     0.44736842     0.25826251     0.20594046
     0.44736842     0.35826251     0.20594046
     0.44736842     0.45826251     0.20594046
     0.44736842     0.55826251     0.20594046
     0.44736842     0.65826251     0.20594046
     0.44736842     0.75826251     0.20594046
     0.44736842     0.85826251     0.20594046
     0.44736842     0.95826251     0.20594046
     0.50000000     0.05826251     0.20594046
     0.50000000     0.15826251     0.20594046
     0.50000000     0.25826251     0.20594046
     0.50000000     0.35826251     0.20594046
     0.50000000     0.45826251     0.20594046
     0.50000000     0.55826251     0.20594046
     0.50000000     0.65826251     0.20594046
     0.50000000     0.75826251     0.20594046
     0.50000000     0.85826251     0.20594046
     0.50000000     0.95826251     0.20594046
     0.55263158     0.05826251     0.20594046
     0.55263158     0.15826251     0.20594046
     0.55263158     0.25826251     0.20594046
     0.55263158     0.35826251     0.20594046
     0.55263158     0.45826251     0.20594046
     0.55263158     0.55826251     0.20594046
     0.55263158     0.65826251     0.20594046
     0.55263158     0.75826251     0.20594046
     0.55263158     0.85826251     0.20594046
     0.55263158     0.95826251     0.20594046
     0.60526316     0.05826251     0.20594046
     0.60526316     0.15826251     0.20594046
     0.60526316     0.25826251     0.20594046
     0.60526316     0.35826251     0.20594046
     0.60526316     0.45826251     0.20594046
     0.60526316     0.55826251     0.20594046
     0.60526316     0.65826251     0.20594046
     0.60526316     0.75826251     0.20594046
     0.60526316     0.85826251     0.20594046
     0.60526316     0.95826251     0.20594046
     0.65789474     0.05826251     0.20594046
     0.65789474     0.15826251     0.20594046
     0.65789474     0.25826251     0.20594046
     0.65789474     0.35826251     0.20594046
     0.65789474     0.45826251     0.20594046
     0.65789474     0.55826251     0.20594046
     0.65789474     0.65826251     0.20594046
     0.65789474     0.75826251     0.20594046
     0.65789474     0.85826251     0.20594046
     0.65789474     0.95826251     0.20594046
     0.71052632     0.05826251     0.20594046
     0.71052632     0.15826251     0.20594046
     0.71052632     0.25826251     0.20594046
     0.71052632     0.35826251     0.20594046
     0.71052632     0.45826251     0.20594046
     0.71052632     0.55826251     0.20594046
     0.71052632     0.65826251     0.20594046
     0.71052632     0.75826251     0.20594046
     0.71052632     0.85826251     0.20594046
     0.71052632     0.95826251     0.20594046
     0.76315789     0.05826251     0.20594046
     0.76315789     0.15826251     0.20594046
     0.76315789     0.25826251     0.20594046
     0.76315789     0.35826251     0.20594046
     0.76315789     0.45826251     0.20594046
     0.76315789     0.55826251     0.20594046
     0.76315789     0.65826251     0.20594046
     0.76315789     0.75826251     0.20594046
     0.76315789     0.85826251     0.20594046
     0.76315789     0.95826251     0.20594046
     0.81578947     0.05826251     0.20594046
     0.81578947     0.15826251     0.20594046
     0.81578947     0.25826251     0.20594046
     0.81578947     0.35826251     0.20594046
     0.81578947     0.45826251     0.20594046
     0.81578947     0.55826251     0.20594046
     0.81578947     0.65826251     0.20594046
     0.81578947     0.75826251     0.20594046
     0.81578947     0.85826251     0.20594046
     0.81578947     0.95826251     0.20594046
     0.86842105     0.05826251     0.20594046
     0.86842105     0.15826251     0.20594046
     0.86842105     0.25826251     0.20594046
     0.86842105     0.35826251     0.20594046
     0.86842105     0.45826251     0.20594046
     0.86842105     0.55826251     0.20594046
     0.86842105     0.65826251     0.20594046
     0.86842105     0.75826251     0.20594046
     0.86842105     0.85826251     0.20594046
     0.86842105     0.95826251     0.20594046
     0.92105263     0.05826251     0.20594046
     0.92105263     0.15826251     0.20594046
     0.92105263     0.25826251     0.20594046
     0.92105263     0.35826251     0.20594046
     0.92105263     0.45826251     0.20594046
     0.92105263     0.55826251     0.20594046
     0.92105263     0.65826251     0.20594046
     0.92105263     0.75826251     0.20594046
     0.92105263     0.85826251     0.20594046
     0.92105263     0.95826251     0.20594046
     0.97368421     0.05826251     0.20594046
     0.97368421     0.15826251     0.20594046
     0.97368421     0.25826251     0.20594046
     0.97368421     0.35826251     0.20594046
     0.97368421     0.45826251     0.20594046
     0.97368421     0.55826251     0.20594046
     0.97368421     0.65826251     0.20594046
     0.97368421     0.75826251     0.20594046
     0.97368421     0.85826251     0.20594046
     0.97368421     0.95826251     0.20594046
     0.02631579     0.04173749     0.10000000
     0.02631579     0.14173749     0.10000000
     0.02631579     0.24173749     0.10000000
     0.02631579     0.34173749     0.10000000
     0.02631579     0.44173749     0.10000000
     0.02631579     0.54173749     0.10000000
     0.02631579     0.64173749     0.10000000
     0.02631579     0.74173749     0.10000000
     0.02631579     0.84173749     0.10000000
     0.02631579     0.94173749     0.10000000
     0.07894737     0.04173749     0.10000000
     0.07894737     0.14173749     0.10000000
     0.07894737     0.24173749     0.10000000
     0.07894737     0.34173749     0.10000000
     0.07894737     0.44173749     0.10000000
     0.07894737     0.54173749     0.10000000
     0.07894737     0.64173749     0.10000000
     0.07894737     0.74173749     0.10000000
     0.07894737     0.84173749     0.10000000
     0.07894737     0.94173749     0.10000000
     0.13157895     0.04173749     0.10000000
     0.13157895     0.14173749     0.10000000
     0.13157895     0.24173749     0.10000000
     0.13157895     0.34173749     0.10000000
     0.13157895     0.44173749     0.10000000
     0.13157895     0.54173749     0.10000000
     0.13157895     0.64173749     0.10000000
     0.13157895     0.74173749     0.10000000
     0.13157895     0.84173749     0.10000000
     0.13157895     0.94173749     0.10000000
     0.18421053     0.04173749     0.10000000
     0.18421053     0.14173749     0.10000000
     0.18421053     0.24173749     0.10000000
     0.18421053     0.34173749     0.10000000
     0.18421053     0.44173749     0.10000000
     0.18421053     0.54173749     0.10000000
     0.18421053     0.64173749     0.10000000
     0.18421053     0.74173749     0.10000000
     0.18421053     0.84173749     0.10000000
     0.18421053     0.94173749     0.10000000
     0.23684211     0.04173749     0.10000000
     0.23684211     0.14173749     0.10000000
     0.23684211     0.24173749     0.10000000
     0.23684211     0.34173749     0.10000000
     0.23684211     0.44173749     0.10000000
     0.23684211     0.54173749     0.10000000
     0.23684211     0.64173749     0.10000000
     0.23684211     0.74173749     0.10000000
     0.23684211     0.84173749     0.10000000
     0.23684211     0.94173749     0.10000000
     0.28947368     0.04173749     0.10000000
     0.28947368     0.14173749     0.10000000
     0.28947368     0.24173749     0.10000000
     0.28947368     0.34173749     0.10000000
     0.28947368     0.44173749     0.10000000
     0.28947368     0.54173749     0.10000000
     0.28947368     0.64173749     0.10000000
     0.28947368     0.74173749     0.10000000
     0.28947368     0.84173749     0.10000000
     0.28947368     0.94173749     0.10000000
     0.34210526     0.04173749     0.10000000
     0.34210526     0.14173749     0.10000000
     0.34210526     0.24173749     0.10000000
     0.34210526     0.34173749     0.10000000
     0.34210526     0.44173749     0.10000000
     0.34210526     0.54173749     0.10000000
     0.34210526     0.64173749     0.10000000
     0.34210526     0.74173749     0.10000000
     0.34210526     0.84173749     0.10000000
     0.34210526     0.94173749     0.10000000
     0.39473684     0.04173749     0.10000000
     0.39473684     0.14173749     0.10000000
     0.39473684     0.24173749     0.10000000
     0.39473684     0.34173749     0.10000000
     0.39473684     0.44173749     0.10000000
     0.39473684     0.54173749     0.10000000
     0.39473684     0.64173749     0.10000000
     0.39473684     0.74173749     0.10000000
     0.39473684     0.84173749     0.10000000
     0.39473684     0.94173749     0.10000000
     0.44736842     0.04173749     0.10000000
     0.44736842     0.14173749     0.10000000
     0.44736842     0.24173749     0.10000000
     0.44736842     0.34173749     0.10000000
     0.44736842     0.44173749     0.10000000
     0.44736842     0.54173749     0.10000000
     0.44736842     0.64173749     0.10000000
     0.44736842     0.74173749     0.10000000
     0.44736842     0.84173749     0.10000000
     0.44736842     0.94173749     0.10000000
     0.50000000     0.04173749     0.10000000
     0.50000000     0.14173749     0.10000000
     0.50000000     0.24173749     0.10000000
     0.50000000     0.34173749     0.10000000
     0.50000000     0.44173749     0.10000000
     0.50000000     0.54173749     0.10000000
     0.50000000     0.64173749     0.10000000
     0.50000000     0.74173749     0.10000000
     0.50000000     0.84173749     0.10000000
     0.50000000     0.94173749     0.10000000
     0.55263158     0.04173749     0.10000000
     0.55263158     0.14173749     0.10000000
     0.55263158     0.24173749     0.10000000
     0.55263158     0.34173749     0.10000000
     0.55263158     0.44173749     0.10000000
     0.55263158     0.54173749     0.10000000
     0.55263158     0.64173749     0.10000000
     0.55263158     0.74173749     0.10000000
     0.55263158     0.84173749     0.10000000
     0.55263158     0.94173749     0.10000000
     0.60526316     0.04173749     0.10000000
     0.60526316     0.14173749     0.10000000
     0.60526316     0.24173749     0.10000000
     0.60526316     0.34173749     0.10000000
     0.60526316     0.44173749     0.10000000
     0.60526316     0.54173749     0.10000000
     0.60526316     0.64173749     0.10000000
     0.60526316     0.74173749     0.10000000
     0.60526316     0.84173749     0.10000000
     0.60526316     0.94173749     0.10000000
     0.65789474     0.04173749     0.10000000
     0.65789474     0.14173749     0.10000000
     0.65789474     0.24173749     0.10000000
     0.65789474     0.34173749     0.10000000
     0.65789474     0.44173749     0.10000000
     0.65789474     0.54173749     0.10000000
     0.65789474     0.64173749     0.10000000
     0.65789474     0.74173749     0.10000000
     0.65789474     0.84173749     0.10000000
     0.65789474     0.94173749     0.10000000
     0.71052632     0.04173749     0.10000000
     0.71052632     0.14173749     0.10000000
     0.71052632     0.24173749     0.10000000
     0.71052632     0.34173749     0.10000000
     0.71052632     0.44173749     0.10000000
     0.71052632     0.54173749     0.10000000
     0.71052632     0.64173749     0.10000000
     0.71052632     0.74173749     0.10000000
     0.71052632     0.84173749     0.10000000
     0.71052632     0.94173749     0.10000000
     0.76315789     0.04173749     0.10000000
     0.76315789     0.14173749     0.10000000
     0.76315789     0.24173749     0.10000000
     0.76315789     0.34173749     0.10000000
     0.76315789     0.44173749     0.10000000
     0.76315789     0.54173749     0.10000000
     0.76315789     0.64173749     0.10000000
     0.76315789     0.74173749     0.10000000
     0.76315789     0.84173749     0.10000000
     0.76315789     0.94173749     0.10000000
     0.81578947     0.04173749     0.10000000
     0.81578947     0.14173749     0.10000000
     0.81578947     0.24173749     0.10000000
     0.81578947     0.34173749     0.10000000
     0.81578947     0.44173749     0.10000000
     0.81578947     0.54173749     0.10000000
     0.81578947     0.64173749     0.10000000
     0.81578947     0.74173749     0.10000000
     0.81578947     0.84173749     0.10000000
     0.81578947     0.94173749     0.10000000
     0.86842105     0.04173749     0.10000000
     0.86842105     0.14173749     0.10000000
     0.86842105     0.24173749     0.10000000
     0.86842105     0.34173749     0.10000000
     0.86842105     0.44173749     0.10000000
     0.86842105     0.54173749     0.10000000
     0.86842105     0.64173749     0.10000000
     0.86842105     0.74173749     0.10000000
     0.86842105     0.84173749     0.10000000
     0.86842105     0.94173749     0.10000000
     0.92105263     0.04173749     0.10000000
     0.92105263     0.14173749     0.10000000
     0.92105263     0.24173749     0.10000000
     0.92105263     0.34173749     0.10000000
     0.92105263     0.44173749     0.10000000
     0.92105263     0.54173749     0.10000000
     0.92105263     0.64173749     0.10000000
     0.92105263     0.74173749     0.10000000
     0.92105263     0.84173749     0.10000000
     0.92105263     0.94173749     0.10000000
     0.97368421     0.04173749     0.10000000
     0.97368421     0.14173749     0.10000000
     0.97368421     0.24173749     0.10000000
     0.97368421     0.34173749     0.10000000
     0.97368421     0.44173749     0.10000000
     0.97368421     0.54173749     0.10000000
     0.97368421     0.64173749     0.10000000
     0.97368421     0.74173749     0.10000000
     0.97368421     0.84173749     0.10000000
     0.97368421     0.94173749     0.10000000
     0.05263158     0.00826251     0.10000000
     0.05263158     0.10826251     0.10000000
     0.05263158     0.20826251     0.10000000
     0.05263158     0.30826251     0.10000000
     0.05263158     0.40826251     0.10000000
     0.05263158     0.50826251     0.10000000
     0.05263158     0.60826251     0.10000000
     0.05263158     0.70826251     0.10000000
     0.05263158     0.80826251     0.10000000
     0.05263158     0.90826251     0.10000000
     0.10526316     0.00826251     0.10000000
     0.10526316     0.10826251     0.10000000
     0.10526316     0.20826251     0.10000000
     0.10526316     0.30826251     0.10000000
     0.10526316     0.40826251     0.10000000
     0.10526316     0.50826251     0.10000000
     0.10526316     0.60826251     0.10000000
     0.10526316     0.70826251     0.10000000
     0.10526316     0.80826251     0.10000000
     0.10526316     0.90826251     0.10000000
     0.15789474     0.00826251     0.10000000
     0.15789474     0.10826251     0.10000000
     0.15789474     0.20826251     0.10000000
     0.15789474     0.30826251     0.10000000
     0.15789474     0.40826251     0.10000000
     0.15789474     0.50826251     0.10000000
     0.15789474     0.60826251     0.10000000
     0.15789474     0.70826251     0.10000000
     0.15789474     0.80826251     0.10000000
     0.15789474     0.90826251     0.10000000
     0.21052632     0.00826251     0.10000000
     0.21052632     0.10826251     0.10000000
     0.21052632     0.20826251     0.10000000
     0.21052632     0.30826251     0.10000000
     0.21052632     0.40826251     0.10000000
     0.21052632     0.50826251     0.10000000
     0.21052632     0.60826251     0.10000000
     0.21052632     0.70826251     0.10000000
     0.21052632     0.80826251     0.10000000
     0.21052632     0.90826251     0.10000000
     0.26315789     0.00826251     0.10000000
     0.26315789     0.10826251     0.10000000
     0.26315789     0.20826251     0.10000000
     0.26315789     0.30826251     0.10000000
     0.26315789     0.40826251     0.10000000
     0.26315789     0.50826251     0.10000000
     0.26315789     0.60826251     0.10000000
     0.26315789     0.70826251     0.10000000
     0.26315789     0.80826251     0.10000000
     0.26315789     0.90826251     0.10000000
     0.31578947     0.00826251     0.10000000
     0.31578947     0.10826251     0.10000000
     0.31578947     0.20826251     0.10000000
     0.31578947     0.30826251     0.10000000
     0.31578947     0.40826251     0.10000000
     0.31578947     0.50826251     0.10000000
     0.31578947     0.60826251     0.10000000
     0.31578947     0.70826251     0.10000000
     0.31578947     0.80826251     0.10000000
     0.31578947     0.90826251     0.10000000
     0.36842105     0.00826251     0.10000000
     0.36842105     0.10826251     0.10000000
     0.36842105     0.20826251     0.10000000
     0.36842105     0.30826251     0.10000000
     0.36842105     0.40826251     0.10000000
     0.36842105     0.50826251     0.10000000
     0.36842105     0.60826251     0.10000000
     0.36842105     0.70826251     0.10000000
     0.36842105     0.80826251     0.10000000
     0.36842105     0.90826251     0.10000000
     0.42105263     0.00826251     0.10000000
     0.42105263     0.10826251     0.10000000
     0.42105263     0.20826251     0.10000000
     0.42105263     0.30826251     0.10000000
     0.42105263     0.40826251     0.10000000
     0.42105263     0.50826251     0.10000000
     0.42105263     0.60826251     0.10000000
     0.42105263     0.70826251     0.10000000
     0.42105263     0.80826251     0.10000000
     0.42105263     0.90826251     0.10000000
     0.47368421     0.00826251     0.10000000
     0.47368421     0.10826251     0.10000000
     0.47368421     0.20826251     0.10000000
     0.47368421     0.30826251     0.10000000
     0.47368421     0.40826251     0.10000000
     0.47368421     0.50826251     0.10000000
     0.47368421     0.60826251     0.10000000
     0.47368421     0.70826251     0.10000000
     0.47368421     0.80826251     0.10000000
     0.47368421     0.90826251     0.10000000
     0.52631579     0.00826251     0.10000000
     0.52631579     0.10826251     0.10000000
     0.52631579     0.20826251     0.10000000
     0.52631579     0.30826251     0.10000000
     0.52631579     0.40826251     0.10000000
     0.52631579     0.50826251     0.10000000
     0.52631579     0.60826251     0.10000000
     0.52631579     0.70826251     0.10000000
     0.52631579     0.80826251     0.10000000
     0.52631579     0.90826251     0.10000000
     0.57894737     0.00826251     0.10000000
     0.57894737     0.10826251     0.10000000
     0.57894737     0.20826251     0.10000000
     0.57894737     0.30826251     0.10000000
     0.57894737     0.40826251     0.10000000
     0.57894737     0.50826251     0.10000000
     0.57894737     0.60826251     0.10000000
     0.57894737     0.70826251     0.10000000
     0.57894737     0.80826251     0.10000000
     0.57894737     0.90826251     0.10000000
     0.63157895     0.00826251     0.10000000
     0.63157895     0.10826251     0.10000000
     0.63157895     0.20826251     0.10000000
     0.63157895     0.30826251     0.10000000
     0.63157895     0.40826251     0.10000000
     0.63157895     0.50826251     0.10000000
     0.63157895     0.60826251     0.10000000
     0.63157895     0.70826251     0.10000000
     0.63157895     0.80826251     0.10000000
     0.63157895     0.90826251     0.10000000
     0.68421053     0.00826251     0.10000000
     0.68421053     0.10826251     0.10000000
     0.68421053     0.20826251     0.10000000
     0.68421053     0.30826251     0.10000000
     0.68421053     0.40826251     0.10000000
     0.68421053     0.50826251     0.10000000
     0.68421053     0.60826251     0.10000000
     0.68421053     0.70826251     0.10000000
     0.68421053     0.80826251     0.10000000
     0.68421053     0.90826251     0.10000000
     0.73684211     0.00826251     0.10000000
     0.73684211     0.10826251     0.10000000
     0.73684211     0.20826251     0.10000000
     0.73684211     0.30826251     0.10000000
     0.73684211     0.40826251     0.10000000
     0.73684211     0.50826251     0.10000000
     0.73684211     0.60826251     0.10000000
     0.73684211     0.70826251     0.10000000
     0.73684211     0.80826251     0.10000000
     0.73684211     0.90826251     0.10000000
     0.78947368     0.00826251     0.10000000
     0.78947368     0.10826251     0.10000000
     0.78947368     0.20826251     0.10000000
     0.78947368     0.30826251     0.10000000
     0.78947368     0.40826251     0.10000000
     0.78947368     0.50826251     0.10000000
     0.78947368     0.60826251     0.10000000
     0.78947368     0.70826251     0.10000000
     0.78947368     0.80826251     0.10000000
     0.78947368     0.90826251     0.10000000
     0.84210526     0.00826251     0.10000000
     0.84210526     0.10826251     0.10000000
     0.84210526     0.20826251     0.10000000
     0.84210526     0.30826251     0.10000000
     0.84210526     0.40826251     0.10000000
     0.84210526     0.50826251     0.10000000
     0.84210526     0.60826251     0.10000000
     0.84210526     0.70826251     0.10000000
     0.84210526     0.80826251     0.10000000
     0.84210526     0.90826251     0.10000000
     0.89473684     0.00826251     0.10000000
     0.89473684     0.10826251     0.10000000
     0.89473684     0.20826251     0.10000000
     0.89473684     0.30826251     0.10000000
     0.89473684     0.40826251     0.10000000
     0.89473684     0.50826251     0.10000000
     0.89473684     0.60826251     0.10000000
     0.89473684     0.70826251     0.10000000
     0.89473684     0.80826251     0.10000000
     0.89473684     0.90826251     0.10000000
     0.94736842     0.00826251     0.10000000
     0.94736842     0.10826251     0.10000000
     0.94736842     0.20826251     0.10000000
     0.94736842     0.30826251     0.10000000
     0.94736842     0.40826251     0.10000000
     0.94736842     0.50826251     0.10000000
     0.94736842     0.60826251     0.10000000
     0.94736842     0.70826251     0.10000000
     0.94736842     0.80826251     0.10000000
     0.94736842     0.90826251     0.10000000
     1.00000000     0.00826251     0.10000000
     1.00000000     0.10826251     0.10000000
     1.00000000     0.20826251     0.10000000
     1.00000000     0.30826251     0.10000000
     1.00000000     0.40826251     0.10000000
     1.00000000     0.50826251     0.10000000
     1.00000000     0.60826251     0.10000000
     1.00000000     0.70826251     0.10000000
     1.00000000     0.80826251     0.10000000
     1.00000000     0.90826251     0.10000000
     0.05263158     0.09173749     0.20594046
     0.05263158     0.19173749     0.20594046
     0.05263158     0.29173749     0.20594046
     0.05263158     0.39173749     0.20594046
     0.05263158     0.49173749     0.20594046
     0.05263158     0.59173749     0.20594046
     0.05263158     0.69173749     0.20594046
     0.05263158     0.79173749     0.20594046
     0.05263158     0.89173749     0.20594046
     0.05263158     0.99173749     0.20594046
     0.10526316     0.09173749     0.20594046
     0.10526316     0.19173749     0.20594046
     0.10526316     0.29173749     0.20594046
     0.10526316     0.39173749     0.20594046
     0.10526316     0.49173749     0.20594046
     0.10526316     0.59173749     0.20594046
     0.10526316     0.69173749     0.20594046
     0.10526316     0.79173749     0.20594046
     0.10526316     0.89173749     0.20594046
     0.10526316     0.99173749     0.20594046
     0.15789474     0.09173749     0.20594046
     0.15789474     0.19173749     0.20594046
     0.15789474     0.29173749     0.20594046
     0.15789474     0.39173749     0.20594046
     0.15789474     0.49173749     0.20594046
     0.15789474     0.59173749     0.20594046
     0.15789474     0.69173749     0.20594046
     0.15789474     0.79173749     0.20594046
     0.15789474     0.89173749     0.20594046
     0.15789474     0.99173749     0.20594046
     0.21052632     0.09173749     0.20594046
     0.21052632     0.19173749     0.20594046
     0.21052632     0.29173749     0.20594046
     0.21052632     0.39173749     0.20594046
     0.21052632     0.49173749     0.20594046
     0.21052632     0.59173749     0.20594046
     0.21052632     0.69173749     0.20594046
     0.21052632     0.79173749     0.20594046
     0.21052632     0.89173749     0.20594046
     0.21052632     0.99173749     0.20594046
     0.26315789     0.09173749     0.20594046
     0.26315789     0.19173749     0.20594046
     0.26315789     0.29173749     0.20594046
     0.26315789     0.39173749     0.20594046
     0.26315789     0.49173749     0.20594046
     0.26315789     0.59173749     0.20594046
     0.26315789     0.69173749     0.20594046
     0.26315789     0.79173749     0.20594046
     0.26315789     0.89173749     0.20594046
     0.26315789     0.99173749     0.20594046
     0.31578947     0.09173749     0.20594046
     0.31578947     0.19173749     0.20594046
     0.31578947     0.29173749     0.20594046
     0.31578947     0.39173749     0.20594046
     0.31578947     0.49173749     0.20594046
     0.31578947     0.59173749     0.20594046
     0.31578947     0.69173749     0.20594046
     0.31578947     0.79173749     0.20594046
     0.31578947     0.89173749     0.20594046
     0.31578947     0.99173749     0.20594046
     0.36842105     0.09173749     0.20594046
     0.36842105     0.19173749     0.20594046
     0.36842105     0.29173749     0.20594046