Generated by Twist2D
    1.0
      29.67299671       0.00000000       0.00000000
       0.00000000      22.15243164       0.00000000
       0.00000000       0.00000000      20.00000000
    P
    364
Direct
     0.05555556     0.11652501     0.20594046
     0.05555556     0.31652501     0.20594046
     0.05555556     0.51652501     0.20594046
     0.05555556     0.71652501     0.20594046
     0.05555556     0.91652501     0.20594046
     0.16666667     0.11652501     0.20594046
     0.16666667     0.31652501     0.20594046
     0.16666667     0.51652501     0.20594046
     0.16666667     0.71652501     0.20594046
     0.16666667     0.91652501     0.20594046
     0.27777778     0.11652501     0.20594046
     0.27777778     0.31652501     0.20594046
     0.27777778     0.51652501     0.20594046
     0.27777778     0.71652501     0.20594046
     0.27777778     0.91652501     0.20594046
     0.38888889     0.11652501     0.20594046
     0.38888889     0.31652501     0.20594046
     0.38888889     0.51652501     0.20594046
     0.38888889     0.71652501     0.20594046
     0.38888889     0.91652501     0.20594046
     0.50000000     0.11652501     0.20594046
     0.50000000     0.31652501     0.20594046
     0.50000000     0.51652501     0.20594046
     0.50000000     0.71652501     0.20594046
     0.50000000     0.91652501     0.20594046
     0.61111111     0.11652501     0.20594046
     0.61111111     0.31652501     0.20594046
     0.61111111     0.51652501     0.20594046
     0.61111111     0.71652501     0.20594046
     0.61111111     0.91652501     0.20594046
     0.72222222     0.11652501     0.20594046
     0.72222222     0.31652501     0.20594046
     0.72222222     0.51652501     0.20594046
     0.72222222     0.71652501     0.20594046
     0.72222222     0.91652501     0.20594046
     0.83333333     0.11652501     0.20594046
     0.83333333     0.31652501     0.20594046
     0.83333333     0.51652501     0.20594046
     0.83333333     0.71652501     0.20594046
     0.83333333     0.91652501     0.20594046
     0.94444444     0.11652501     0.20594046
     0.94444444     0.31652501     0.20594046
     0.94444444     0.51652501     0.20594046
     0.94444444     0.71652501     0.20594046
     0.94444444     0.91652501     0.20594046
     0.05555556     0.08347499     0.10000000
     0.05555556     0.28347499     0.10000000
     0.05555556     0.48347499     0.10000000
     0.05555556     0.68347499     0.10000000
     0.05555556     0.88347499     0.10000000
     0.16666667     0.08347499     0.10000000
     0.16666667     0.28347499     0.10000000
     0.16666667     0.48347499     0.10000000
     0.16666667     0.68347499     0.10000000
     0.16666667     0.88347499     0.10000000
     0.27777778     0.08347499     0.10000000
     0.27777778     0.28347499     0.10000000
     0.27777778     0.48347499     0.10000000
     0.27777778     0.68347499     0.10000000
     0.27777778     0.88347499     0.10000000
     0.38888889     0.08347499     0.10000000
     0.38888889     0.28347499     0.10000000
     0.38888889     0.48347499     0.10000000
     0.38888889     0.68347499     0.10000000
     0.38888889     0.88347499     0.10000000
     0.50000000     0.08347499     0.10000000
     0.50000000     0.28347499     0.10000000
     0.50000000     0.48347499     0.10000000
     0.50000000     0.68347499     0.10000000
     0.50000000     0.88347499     0.10000000
     0.61111111     0.08347499     0.10000000
     0.61111111     0.28347499     0.10000000
     0.61111111     0.48347499     0.10000000
     0.61111111     0.68347499     0.10000000
     0.61111111     0.88347499     0.10000000
     0.72222222     0.08347499     0.10000000
     0.72222222     0.28347499     0.10000000
     0.72222222     0.48347499     0.10000000
     0.72222222     0.68347499     0.10000000
     0.72222222     0.88347499     0.10000000
     0.83333333     0.08347499     0.10000000
     0.83333333     0.28347499     0.10000000
     0.83333333     0.48347499     0.10000000
     0.83333333     0.68347499     0.10000000
     0.83333333     0.88347499     0.10000000
     0.94444444     0.08347499     0.10000000
     0.94444444     0.28347499     0.10000000
     0.94444444     0.48347499     0.10000000
     0.94444444     0.68347499     0.10000000
     0.94444444     0.88347499     0.10000000
     0.11111111     0.01652501     0.10000000
     0.11111111     0.21652501     0.10000000
     0.11111111     0.41652501     0.10000000
     0.11111111     0.61652501     0.10000000
     0.11111111     0.81652501     0.10000000
     0.22222222     0.01652501     0.10000000
     0.22222222     0.21652501     0.10000000
     0.22222222     0.41652501     0.10000000
     0.22222222     0.61652501     0.10000000
     0.22222222     0.81652501     0.10000000
     0.33333333     0.01652501     0.10000000
     0.33333333     0.21652501     0.10000000
     0.33333333     0.41652501     0.10000000
     0.33333333     0.61652501     0.10000000
     0.33333333     0.81652501     0.10000000
     0.44444444     0.01652501     0.10000000
     0.44444444     0.21652501     0.10000000
     0.44444444     0.41652501     0.10000000
     0.44444444     0.61652501     0.10000000
     0.44444444     0.81652501     0.10000000
     0.55555556     0.01652501     0.10000000
     0.55555556     0.21652501     0.10000000
     0.55555556     0.41652501     0.10000000
     0.55555556     0.61652501     0.10000000
     0.55555556     0.81652501     0.10000000
     0.66666667     0.01652501     0.10000000
     0.66666667     0.21652501     0.10000000
     0.66666667     0.41652501     0.10000000
     0.66666667     0.61652501     0.10000000
     0.66666667     0.81652501     0.10000000
     0.77777778     0.01652501     0.10000000
     0.77777778     0.21652501     0.10000000
     0.77777778     0.41652501     0.10000000
     0.77777778     0.61652501     0.10000000
     0.77777778     0.81652501     0.10000000
     0.88888889     0.01652501     0.10000000
     0.88888889     0.21652501     0.10000000
     0.88888889     0.41652501     0.10000000
     0.88888889     0.61652501     0.10000000
     0.88888889     0.81652501     0.10000000
     1.00000000     0.01652501     0.10000000
     1.00000000     0.21652501     0.10000000
     1.00000000     0.41652501     0.10000000
     1.00000000     0.61652501     0.10000000
     1.00000000     0.81652501     0.10000000
     0.11111111     0.18347499     0.20594046
     0.11111111     0.38347499     0.20594046
     0.11111111     0.58347499     0.20594046
     0.11111111     0.78347499     0.20594046
     0.11111111     0.98347499     0.20594046
     0.22222222     0.18347499     0.20594046
     0.22222222     0.38347499     0.20594046
     0.22222222     0.58347499     0.20594046
     0.22222222     0.78347499     0.20594046
     0.22222222     0.98347499     0.20594046
     0.33333333     0.18347499     0.20594046
     0.33333333     0.38347499     0.20594046
     0.33333333     0.58347499     0.20594046
     0.33333333     0.78347499     0.20594046
     0.33333333     0.98347499     0.20594046
     0.44444444     0.18347499     0.20594046
     0.44444444     0.38347499     0.20594046
     0.44444444     0.58347499     0.20594046
     0.44444444     0.78347499     0.20594046
     0.44444444     0.98347499     0.20594046
     0.55555556     0.18347499     0.20594046
     0.55555556     0.38347499     0.20594046
     0.55555556     0.58347499     0.20594046
     0.55555556     0.78347499     0.20594046
     0.55555556     0.98347499     0.20594046
     0.66666667     0.18347499     0.20594046
     0.66666667     0.38347499     0.20594046
     0.66666667     0.58347499     0.20594046
     0.66666667     0.78347499     0.20594046
     0.66666667     0.98347499     0.20594046
     0.77777778     0.18347499     0.20594046
     0.77777778     0.38347499     0.20594046
     0.77777778     0.58347499     0.20594046
     0.77777778     0.78347499     0.20594046
     0.77777778     0.98347499     0.20594046
     0.88888889     0.18347499     0.20594046
     0.88888889     0.38347499     0.20594046
     0.88888889     0.58347499     0.20594046
     0.88888889     0.78347499     0.20594046
     0.88888889     0.98347499     0.20594046
     1.00000000     0.18347499     0.20594046
     1.00000000     0.38347499     0.20594046
     1.00000000     0.58347499     0.20594046
     1.00000000     0.78347499     0.20594046
     1.00000000     0.98347499     0.20594046
    -0.01266576     0.11399186     0.46094041
     0.09602989     0.13573099     0.46094041
     0.07429076     0.33138317     0.46094041
     0.05255163     0.52703534     0.46094041
     0.03081250     0.72268751     0.46094041
     0.00907337     0.91833969     0.46094041
     0.20472554     0.15747012     0.46094041
     0.18298641     0.35312230     0.46094041
     0.16124728     0.54877447     0.46094041
     0.13950815     0.74442664     0.46094041
     0.11776902     0.94007882     0.46094041
     0.31342119     0.17920925     0.46094041
     0.29168206     0.37486143     0.46094041
     0.26994293     0.57051360     0.46094041
     0.24820380     0.76616577     0.46094041
     0.22646467     0.96181795     0.46094041
     0.42211685     0.20094838     0.46094041
     0.40037772     0.39660056     0.46094041
     0.37863859     0.59225273     0.46094041
     0.35689946     0.78790490     0.46094041
     0.33516032     0.98355708     0.46094041
     0.53081250     0.22268751     0.46094041
     0.50907337     0.41833969     0.46094041
     0.48733424     0.61399186     0.46094041
     0.46559511     0.80964404     0.46094041
     0.44385598     1.00529621     0.46094041
     0.63950815     0.24442664     0.46094041
     0.61776902     0.44007882     0.46094041
     0.59602989     0.63573099     0.46094041
     0.57429076     0.83138317     0.46094041
     0.55255163     1.02703534     0.46094041
     0.74820380     0.26616577     0.46094041
     0.72646467     0.46181795     0.46094041
     0.70472554     0.65747012     0.46094041
     0.68298641     0.85312230     0.46094041
     0.66124728     1.04877447     0.46094041
     0.85689946     0.28790490     0.46094041
     0.83516032     0.48355708     0.46094041
     0.81342119     0.67920925     0.46094041
     0.79168206     0.87486143     0.46094041
     0.76994293     1.07051360     0.46094041
     0.96559511     0.30964404     0.46094041
     0.94385598     0.50529621     0.46094041
     0.92211685     0.70094838     0.46094041
     0.90037772     0.89660056     0.46094041
     0.87863859     1.09225273     0.46094041
    -0.00907337     0.08166031     0.35499995
     0.09962228     0.10339944     0.35499995
     0.07788315     0.29905162     0.35499995
     0.05614402     0.49470379     0.35499995
     0.03440489     0.69035596     0.35499995
     0.01266576     0.88600814     0.35499995
     0.20831794     0.12513857     0.35499995
     0.18657881     0.32079075     0.35499995
     0.16483968     0.51644292     0.35499995
     0.14310054     0.71209510     0.35499995
     0.12136141     0.90774727     0.35499995
     0.31701359     0.14687770     0.35499995
     0.29527446     0.34252988     0.35499995
     0.27353533     0.53818205     0.35499995
     0.25179620     0.73383423     0.35499995
     0.23005707     0.92948640     0.35499995
     0.42570924     0.16861683     0.35499995
     0.40397011     0.36426901     0.35499995
     0.38223098     0.55992118     0.35499995
     0.36049185     0.75557336     0.35499995
     0.33875272     0.95122553     0.35499995
     0.53440489     0.19035596     0.35499995
     0.51266576     0.38600814     0.35499995
     0.49092663     0.58166031     0.35499995
     0.46918750     0.77731249     0.35499995
     0.44744837     0.97296466     0.35499995
     0.64310054     0.21209510     0.35499995
     0.62136141     0.40774727     0.35499995
     0.59962228     0.60339944     0.35499995
     0.57788315     0.79905162     0.35499995
     0.55614402     0.99470379     0.35499995
     0.75179620     0.23383423     0.35499995
     0.73005707     0.42948640     0.35499995
     0.70831794     0.62513857     0.35499995
     0.68657881     0.82079075     0.35499995
     0.66483968     1.01644292     0.35499995
     0.86049185     0.25557336     0.35499995
     0.83875272     0.45122553     0.35499995
     0.81701359     0.64687770     0.35499995
     0.79527446     0.84252988     0.35499995
     0.77353533     1.03818205     0.35499995
     0.96918750     0.27731249     0.35499995
     0.94744837     0.47296466     0.35499995
     0.92570924     0.66861683     0.35499995
     0.90397011     0.86426901     0.35499995
     0.88223098     1.05992118     0.35499995
     0.05255163     0.02703534     0.35499995
     0.16124728     0.04877447     0.35499995
     0.13950815     0.24442664     0.35499995
     0.11776902     0.44007882     0.35499995
     0.09602989     0.63573099     0.35499995
     0.07429076     0.83138316     0.35499995
     0.26994293     0.07051360     0.35499995
     0.24820380     0.26616577     0.35499995
     0.22646467     0.46181795     0.35499995
     0.20472554     0.65747012     0.35499995
     0.18298641     0.85312229     0.35499995
     0.37863859     0.09225273     0.35499995
     0.35689946     0.28790490     0.35499995
     0.33516032     0.48355708     0.35499995
     0.31342119     0.67920925     0.35499995
     0.29168206     0.87486142     0.35499995
     0.48733424     0.11399186     0.35499995
     0.46559511     0.30964403     0.35499995
     0.44385598     0.50529621     0.35499995
     0.42211685     0.70094838     0.35499995
     0.40037772     0.89660056     0.35499995
     0.59602989     0.13573099     0.35499995
     0.57429076     0.33138316     0.35499995
     0.55255163     0.52703534     0.35499995
     0.53081250     0.72268751     0.35499995
     0.50907337     0.91833969     0.35499995
     0.70472554     0.15747012     0.35499995
     0.68298641     0.35312229     0.35499995
     0.66124728     0.54877447     0.35499995
     0.63950815     0.74442664     0.35499995
     0.61776902     0.94007882     0.35499995
     0.81342119     0.17920925     0.35499995
     0.79168206     0.37486142     0.35499995
     0.76994293     0.57051360     0.35499995
     0.74820380     0.76616577     0.35499995
     0.72646467     0.96181795     0.35499995
     0.92211685     0.20094838     0.35499995
     0.90037772     0.39660056     0.35499995
     0.87863859     0.59225273     0.35499995
     0.85689946     0.78790490     0.35499995
     0.83516032     0.98355708     0.35499995
     1.03081250     0.22268751     0.35499995
     1.00907337     0.41833969     0.35499995
     0.98733424     0.61399186     0.35499995
     0.96559511     0.80964403     0.35499995
     0.94385598     1.00529621     0.35499995
     0.03440489     0.19035596     0.46094041
     0.14310054     0.21209510     0.46094041
     0.12136141     0.40774727     0.46094041
     0.09962228     0.60339944     0.46094041
     0.07788315     0.79905162     0.46094041
     0.05614402     0.99470379     0.46094041
     0.25179620     0.23383423     0.46094041
     0.23005707     0.42948640     0.46094041
     0.20831794     0.62513857     0.46094041
     0.18657881     0.82079075     0.46094041
     0.16483968     1.01644292     0.46094041
     0.36049185     0.25557336     0.46094041
     0.33875272     0.45122553     0.46094041
     0.31701359     0.64687770     0.46094041
     0.29527446     0.84252988     0.46094041
     0.27353533     1.03818205     0.46094041
     0.46918750     0.27731249     0.46094041
     0.44744837     0.47296466     0.46094041
     0.42570924     0.66861683     0.46094041
     0.40397011     0.86426901     0.46094041
     0.38223098     1.05992118     0.46094041
     0.57788315     0.29905162     0.46094041
     0.55614402     0.49470379     0.46094041
     0.53440489     0.69035596     0.46094041
     0.51266576     0.88600814     0.46094041
     0.49092663     1.08166031     0.46094041
     0.68657881     0.32079075     0.46094041
     0.66483968     0.51644292     0.46094041
     0.64310054     0.71209510     0.46094041
     0.62136141     0.90774727     0.46094041
     0.59962228     1.10339944     0.46094041
     0.79527446     0.34252988     0.46094041
     0.77353533     0.53818205     0.46094041
     0.75179620     0.73383423     0.46094041
     0.73005707     0.92948640     0.46094041
     0.70831794     1.12513857     0.46094041
     0.90397011     0.36426901     0.46094041
     0.88223098     0.55992118     0.46094041
     0.86049185     0.75557336     0.46094041
     0.83875272     0.95122553     0.46094041
     0.81701359     1.14687770     0.46094041
     1.01266576     0.38600814     0.46094041
     0.99092663     0.58166031     0.46094041
     0.96918750     0.77731249     0.46094041
     0.94744837     0.97296466     0.46094041
     0.92570924     1.16861683     0.46094041
