Generated by Twist2D
    1.0
      46.15799489       0.00000000       0.00000000
       0.00000000      35.44389063       0.00000000
       0.00000000       0.00000000      20.00000000
    P
    900
Direct
     0.03571429     0.07282813     0.20594046
     0.03571429     0.19782813     0.20594046
     0.03571429     0.32282813     0.20594046
     0.03571429     0.44782813     0.20594046
     0.03571429     0.57282813     0.20594046
     0.03571429     0.69782813     0.20594046
     0.03571429     0.82282813     0.20594046
     0.03571429     0.94782813     0.20594046
     0.10714286     0.07282813     0.20594046
     0.10714286     0.19782813     0.20594046
     0.10714286     0.32282813     0.20594046
     0.10714286     0.44782813     0.20594046
     0.10714286     0.57282813     0.20594046
     0.10714286     0.69782813     0.20594046
     0.10714286     0.82282813     0.20594046
     0.10714286     0.94782813     0.20594046
     0.17857143     0.07282813     0.20594046
     0.17857143     0.19782813     0.20594046
     0.17857143     0.32282813     0.20594046
     0.17857143     0.44782813     0.20594046
     0.17857143     0.57282813     0.20594046
     0.17857143     0.69782813     0.20594046
     0.17857143     0.82282813     0.20594046
     0.17857143     0.94782813     0.20594046
     0.25000000     0.07282813     0.20594046
     0.25000000     0.19782813     0.20594046
     0.25000000     0.32282813     0.20594046
     0.25000000     0.44782813     0.20594046
     0.25000000     0.57282813     0.20594046
     0.25000000     0.69782813     0.20594046
     0.25000000     0.82282813     0.20594046
     0.25000000     0.94782813     0.20594046
     0.32142857     0.07282813     0.20594046
     0.32142857     0.19782813     0.20594046
     0.32142857     0.32282813     0.20594046
     0.32142857     0.44782813     0.20594046
     0.32142857     0.57282813     0.20594046
     0.32142857     0.69782813     0.20594046
     0.32142857     0.82282813     0.20594046
     0.32142857     0.94782813     0.20594046
     0.39285714     0.07282813     0.20594046
     0.39285714     0.19782813     0.20594046
     0.39285714     0.32282813     0.20594046
     0.39285714     0.44782813     0.20594046
     0.39285714     0.57282813     0.20594046
     0.39285714     0.69782813     0.20594046
     0.39285714     0.82282813     0.20594046
     0.39285714     0.94782813     0.20594046
     0.46428571     0.07282813     0.20594046
     0.46428571     0.19782813     0.20594046
     0.46428571     0.32282813     0.20594046
     0.46428571     0.44782813     0.20594046
     0.46428571     0.57282813     0.20594046
     0.46428571     0.69782813     0.20594046
     0.46428571     0.82282813     0.20594046
     0.46428571     0.94782813     0.20594046
     0.53571429     0.07282813     0.20594046
     0.53571429     0.19782813     0.20594046
     0.53571429     0.32282813     0.20594046
     0.53571429     0.44782813     0.20594046
     0.53571429     0.57282813     0.20594046
     0.53571429     0.69782813     0.20594046
     0.53571429     0.82282813     0.20594046
     0.53571429     0.94782813     0.20594046
     0.60714286     0.07282813     0.20594046
     0.60714286     0.19782813     0.20594046
     0.60714286     0.32282813     0.20594046
     0.60714286     0.44782813     0.20594046
     0.60714286     0.57282813     0.20594046
     0.60714286     0.69782813     0.20594046
     0.60714286     0.82282813     0.20594046
     0.60714286     0.94782813     0.20594046
     0.67857143     0.07282813     0.20594046
     0.67857143     0.19782813     0.20594046
     0.67857143     0.32282813     0.20594046
     0.67857143     0.44782813     0.20594046
     0.67857143     0.57282813     0.20594046
     0.67857143     0.69782813     0.20594046
     0.67857143     0.82282813     0.20594046
     0.67857143     0.94782813     0.20594046
     0.75000000     0.07282813     0.20594046
     0.75000000     0.19782813     0.20594046
     0.75000000     0.32282813     0.20594046
     0.75000000     0.44782813     0.20594046
     0.75000000     0.57282813     0.20594046
     0.75000000     0.69782813     0.20594046
     0.75000000     0.82282813     0.20594046
     0.75000000     0.94782813     0.20594046
     0.82142857     0.07282813     0.20594046
     0.82142857     0.19782813     0.20594046
     0.82142857     0.32282813     0.20594046
     0.82142857     0.44782813     0.20594046
     0.82142857     0.57282813     0.20594046
     0.82142857     0.69782813     0.20594046
     0.82142857     0.82282813     0.20594046
     0.82142857     0.94782813     0.20594046
     0.89285714     0.07282813     0.20594046
     0.89285714     0.19782813     0.20594046
     0.89285714     0.32282813     0.20594046
     0.89285714     0.44782813     0.20594046
     0.89285714     0.57282813     0.20594046
     0.89285714     0.69782813     0.20594046
     0.89285714     0.82282813     0.20594046
     0.89285714     0.94782813     0.20594046
     0.96428571     0.07282813     0.20594046
     0.96428571     0.19782813     0.20594046
     0.96428571     0.32282813     0.20594046
     0.96428571     0.44782813     0.20594046
     0.96428571     0.57282813     0.20594046
     0.96428571     0.69782813     0.20594046
     0.96428571     0.82282813     0.20594046
     0.96428571     0.94782813     0.20594046
     0.03571429     0.05217187     0.10000000
     0.03571429     0.17717187     0.10000000
     0.03571429     0.30217187     0.10000000
     0.03571429     0.42717187     0.10000000
     0.03571429     0.55217187     0.10000000
     0.03571429     0.67717187     0.10000000
     0.03571429     0.80217187     0.10000000
     0.03571429     0.92717187     0.10000000
     0.10714286     0.05217187     0.10000000
     0.10714286     0.17717187     0.10000000
     0.10714286     0.30217187     0.10000000
     0.10714286     0.42717187     0.10000000
     0.10714286     0.55217187     0.10000000
     0.10714286     0.67717187     0.10000000
     0.10714286     0.80217187     0.10000000
     0.10714286     0.92717187     0.10000000
     0.17857143     0.05217187     0.10000000
     0.17857143     0.17717187     0.10000000
     0.17857143     0.30217187     0.10000000
     0.17857143     0.42717187     0.10000000
     0.17857143     0.55217187     0.10000000
     0.17857143     0.67717187     0.10000000
     0.17857143     0.80217187     0.10000000
     0.17857143     0.92717187     0.10000000
     0.25000000     0.05217187     0.10000000
     0.25000000     0.17717187     0.10000000
     0.25000000     0.30217187     0.10000000
     0.25000000     0.42717187     0.10000000
     0.25000000     0.55217187     0.10000000
     0.25000000     0.67717187     0.10000000
     0.25000000     0.80217187     0.10000000
     0.25000000     0.92717187     0.10000000
     0.32142857     0.05217187     0.10000000
     0.32142857     0.17717187     0.10000000
     0.32142857     0.30217187     0.10000000
     0.32142857     0.42717187     0.10000000
     0.32142857     0.55217187     0.10000000
     0.32142857     0.67717187     0.10000000
     0.32142857     0.80217187     0.10000000
     0.32142857     0.92717187     0.10000000
     0.39285714     0.05217187     0.10000000
     0.39285714     0.17717187     0.10000000
     0.39285714     0.30217187     0.10000000
     0.39285714     0.42717187     0.10000000
     0.39285714     0.55217187     0.10000000
     0.39285714     0.67717187     0.10000000
     0.39285714     0.80217187     0.10000000
     0.39285714     0.92717187     0.10000000
     0.46428571     0.05217187     0.10000000
     0.46428571     0.17717187     0.10000000
     0.46428571     0.30217187     0.10000000
     0.46428571     0.42717187     0.10000000
     0.46428571     0.55217187     0.10000000
     0.46428571     0.67717187     0.10000000
     0.46428571     0.80217187     0.10000000
     0.46428571     0.92717187     0.10000000
     0.53571429     0.05217187     0.10000000
     0.53571429     0.17717187     0.10000000
     0.53571429     0.30217187     0.10000000
     0.53571429     0.42717187     0.10000000
     0.53571429     0.55217187     0.10000000
     0.53571429     0.67717187     0.10000000
     0.53571429     0.80217187     0.10000000
     0.53571429     0.92717187     0.10000000
     0.60714286     0.05217187     0.10000000
     0.60714286     0.17717187     0.10000000
     0.60714286     0.30217187     0.10000000
     0.60714286     0.42717187     0.10000000
     0.60714286     0.55217187     0.10000000
     0.60714286     0.67717187     0.10000000
     0.60714286     0.80217187     0.10000000
     0.60714286     0.92717187     0.10000000
     0.67857143     0.05217187     0.10000000
     0.67857143     0.17717187     0.10000000
     0.67857143     0.30217187     0.10000000
     0.67857143     0.42717187     0.10000000
     0.67857143     0.55217187     0.10000000
     0.67857143     0.67717187     0.10000000
     0.67857143     0.80217187     0.10000000
     0.67857143     0.92717187     0.10000000
     0.75000000     0.05217187     0.10000000
     0.75000000     0.17717187     0.10000000
     0.75000000     0.30217187     0.10000000
     0.75000000     0.42717187     0.10000000
     0.75000000     0.55217187     0.10000000
     0.75000000     0.67717187     0.10000000
     0.75000000     0.80217187     0.10000000
     0.75000000     0.92717187     0.10000000
     0.82142857     0.05217187     0.10000000
     0.82142857     0.17717187     0.10000000
     0.82142857     0.30217187     0.10000000
     0.82142857     0.42717187     0.10000000
     0.82142857     0.55217187     0.10000000
     0.82142857     0.67717187     0.10000000
     0.82142857     0.80217187     0.10000000
     0.82142857     0.92717187     0.10000000
     0.89285714     0.05217187     0.10000000
     0.89285714     0.17717187     0.10000000
     0.89285714     0.30217187     0.10000000
     0.89285714     0.42717187     0.10000000
     0.89285714     0.55217187     0.10000000
     0.89285714     0.67717187     0.10000000
     0.89285714     0.80217187     0.10000000
     0.89285714     0.92717187     0.10000000
     0.96428571     0.05217187     0.10000000
     0.96428571     0.17717187     0.10000000
     0.96428571     0.30217187     0.10000000
     0.96428571     0.42717187     0.10000000
     0.96428571     0.55217187     0.10000000
     0.96428571     0.67717187     0.10000000
     0.96428571     0.80217187     0.10000000
     0.96428571     0.92717187     0.10000000
     0.07142857     0.01032813     0.10000000
     0.07142857     0.13532813     0.10000000
     0.07142857     0.26032813     0.10000000
     0.07142857     0.38532813     0.10000000
     0.07142857     0.51032813     0.10000000
     0.07142857     0.63532813     0.10000000
     0.07142857     0.76032813     0.10000000
     0.07142857     0.88532813     0.10000000
     0.14285714     0.01032813     0.10000000
     0.14285714     0.13532813     0.10000000
     0.14285714     0.26032813     0.10000000
     0.14285714     0.38532813     0.10000000
     0.14285714     0.51032813     0.10000000
     0.14285714     0.63532813     0.10000000
     0.14285714     0.76032813     0.10000000
     0.14285714     0.88532813     0.10000000
     0.21428571     0.01032813     0.10000000
     0.21428571     0.13532813     0.10000000
     0.21428571     0.26032813     0.10000000
     0.21428571     0.38532813     0.10000000
     0.21428571     0.51032813     0.10000000
     0.21428571     0.63532813     0.10000000
     0.21428571     0.76032813     0.10000000
     0.21428571     0.88532813     0.10000000
     0.28571429     0.01032813     0.10000000
     0.28571429     0.13532813     0.10000000
     0.28571429     0.26032813     0.10000000
     0.28571429     0.38532813     0.10000000
     0.28571429     0.51032813     0.10000000
     0.28571429     0.63532813     0.10000000
     0.28571429     0.76032813     0.10000000
     0.28571429     0.88532813     0.10000000
     0.35714286     0.01032813     0.10000000
     0.35714286     0.13532813     0.10000000
     0.35714286     0.26032813     0.10000000
     0.35714286     0.38532813     0.10000000
     0.35714286     0.51032813     0.10000000
     0.35714286     0.63532813     0.10000000
     0.35714286     0.76032813     0.10000000
     0.35714286     0.88532813     0.10000000
     0.42857143     0.01032813     0.10000000
     0.42857143     0.13532813     0.10000000
     0.42857143     0.26032813     0.10000000
     0.42857143     0.38532813     0.10000000
     0.42857143     0.51032813     0.10000000
     0.42857143     0.63532813     0.10000000
     0.42857143     0.76032813     0.10000000
     0.42857143     0.88532813     0.10000000
     0.50000000     0.01032813     0.10000000
     0.50000000     0.13532813     0.10000000
     0.50000000     0.26032813     0.10000000
     0.50000000     0.38532813     0.10000000
     0.50000000     0.51032813     0.10000000
     0.50000000     0.63532813     0.10000000
     0.50000000     0.76032813     0.10000000
     0.50000000     0.88532813     0.10000000
     0.57142857     0.01032813     0.10000000
     0.57142857     0.13532813     0.10000000
     0.57142857     0.26032813     0.10000000
     0.57142857     0.38532813     0.10000000
     0.57142857     0.51032813     0.10000000
     0.57142857     0.63532813     0.10000000
     0.57142857     0.76032813     0.10000000
     0.57142857     0.88532813     0.10000000
     0.64285714     0.01032813     0.10000000
     0.64285714     0.13532813     0.10000000
     0.64285714     0.26032813     0.10000000
     0.64285714     0.38532813     0.10000000
     0.64285714     0.51032813     0.10000000
     0.64285714     0.63532813     0.10000000
     0.64285714     0.76032813     0.10000000
     0.64285714     0.88532813     0.10000000
     0.71428571     0.01032813     0.10000000
     0.71428571     0.13532813     0.10000000
     0.71428571     0.26032813     0.10000000
     0.71428571     0.38532813     0.10000000
     0.71428571     0.51032813     0.10000000
     0.71428571     0.63532813     0.10000000
     0.71428571     0.76032813     0.10000000
     0.71428571     0.88532813     0.10000000
     0.78571429     0.01032813     0.10000000
     0.78571429     0.13532813     0.10000000
     0.78571429     0.26032813     0.10000000
     0.78571429     0.38532813     0.10000000
     0.78571429     0.51032813     0.10000000
     0.78571429     0.63532813     0.10000000
     0.78571429     0.76032813     0.10000000
     0.78571429     0.88532813     0.10000000
     0.85714286     0.01032813     0.10000000
     0.85714286     0.13532813     0.10000000
     0.85714286     0.26032813     0.10000000
     0.85714286     0.38532813     0.10000000
     0.85714286     0.51032813     0.10000000
     0.85714286     0.63532813     0.10000000
     0.85714286     0.76032813     0.10000000
     0.85714286     0.88532813     0.10000000
     0.92857143     0.01032813     0.10000000
     0.92857143     0.13532813     0.10000000
     0.92857143     0.26032813     0.10000000
     0.92857143     0.38532813     0.10000000
     0.92857143     0.51032813     0.10000000
     0.92857143     0.63532813     0.10000000
     0.92857143     0.76032813     0.10000000
     0.92857143     0.88532813     0.10000000
     1.00000000     0.01032813     0.10000000
     1.00000000     0.13532813     0.10000000
     1.00000000     0.26032813     0.10000000
     1.00000000     0.38532813     0.10000000
     1.00000000     0.51032813     0.10000000
     1.00000000     0.63532813     0.10000000
     1.00000000     0.76032813     0.10000000
     1.00000000     0.88532813     0.10000000
     0.07142857     0.11467187     0.20594046
     0.07142857     0.23967187     0.20594046
     0.07142857     0.36467187     0.20594046
     0.07142857     0.48967187     0.20594046
     0.07142857     0.61467187     0.20594046
     0.07142857     0.73967187     0.20594046
     0.07142857     0.86467187     0.20594046
     0.07142857     0.98967187     0.20594046
     0.14285714     0.11467187     0.20594046
     0.14285714     0.23967187     0.20594046
     0.14285714     0.36467187     0.20594046
     0.14285714     0.48967187     0.20594046
     0.14285714     0.61467187     0.20594046
     0.14285714     0.73967187     0.20594046
     0.14285714     0.86467187     0.20594046
     0.14285714     0.98967187     0.20594046
     0.21428571     0.11467187     0.20594046
     0.21428571     0.23967187     0.20594046
     0.21428571     0.36467187     0.20594046
     0.21428571     0.48967187     0.20594046
     0.21428571     0.61467187     0.20594046
     0.21428571     0.73967187     0.20594046
     0.21428571     0.86467187     0.20594046
     0.21428571     0.98967187     0.20594046
     0.28571429     0.11467187     0.20594046
     0.28571429     0.23967187     0.20594046
     0.28571429     0.36467187     0.20594046
     0.28571429     0.48967187     0.20594046
     0.28571429     0.61467187     0.20594046
     0.28571429     0.73967187     0.20594046
     0.28571429     0.86467187     0.20594046
     0.28571429     0.98967187     0.20594046
     0.35714286     0.11467187     0.20594046
     0.35714286     0.23967187     0.20594046
     0.35714286     0.36467187     0.20594046
     0.35714286     0.48967187     0.20594046
     0.35714286     0.61467187     0.20594046
     0.35714286     0.73967187     0.20594046
     0.35714286     0.86467187     0.20594046
     0.35714286     0.98967187     0.20594046
     0.42857143     0.11467187     0.20594046
     0.42857143     0.23967187     0.20594046
     0.42857143     0.36467187     0.20594046
     0.42857143     0.48967187     0.20594046
     0.42857143     0.61467187     0.20594046
     0.42857143     0.73967187     0.20594046
     0.42857143     0.86467187     0.20594046
     0.42857143     0.98967187     0.20594046
     0.50000000     0.11467187     0.20594046
     0.50000000     0.23967187     0.20594046
     0.50000000     0.36467187     0.20594046
     0.50000000     0.48967187     0.20594046
     0.50000000     0.61467187     0.20594046
     0.50000000     0.73967187     0.20594046
     0.50000000     0.86467187     0.20594046
     0.50000000     0.98967187     0.20594046
     0.57142857     0.11467187     0.20594046
     0.57142857     0.23967187     0.20594046
     0.57142857     0.36467187     0.20594046
     0.57142857     0.48967187     0.20594046
     0.57142857     0.61467187     0.20594046
     0.57142857     0.73967187     0.20594046
     0.57142857     0.86467187     0.20594046
     0.57142857     0.98967187     0.20594046
     0.64285714     0.11467187     0.20594046
     0.64285714     0.23967187     0.20594046
     0.64285714     0.36467187     0.20594046
     0.64285714     0.48967187     0.20594046
     0.64285714     0.61467187     0.20594046
     0.64285714     0.73967187     0.20594046
     0.64285714     0.86467187     0.20594046
     0.64285714     0.98967187     0.20594046
     0.71428571     0.11467187     0.20594046
     0.71428571     0.23967187     0.20594046
     0.71428571     0.36467187     0.20594046
     0.71428571     0.48967187     0.20594046
     0.71428571     0.61467187     0.20594046
     0.71428571     0.73967187     0.20594046
     0.71428571     0.86467187     0.20594046
     0.71428571     0.98967187     0.20594046
     0.78571429     0.11467187     0.20594046
     0.78571429     0.23967187     0.20594046
     0.78571429     0.36467187     0.20594046
     0.78571429     0.48967187     0.20594046
     0.78571429     0.61467187     0.20594046
     0.78571429     0.73967187     0.20594046
     0.78571429     0.86467187     0.20594046
     0.78571429     0.98967187     0.20594046
     0.85714286     0.11467187     0.20594046
     0.85714286     0.23967187     0.20594046
     0.85714286     0.36467187     0.20594046
     0.85714286     0.48967187     0.20594046
     0.85714286     0.61467187     0.20594046
     0.85714286     0.73967187     0.20594046
     0.85714286     0.86467187     0.20594046
     0.85714286     0.98967187     0.20594046
     0.92857143     0.11467187     0.20594046
     0.92857143     0.23967187     0.20594046
     0.92857143     0.36467187     0.20594046
     0.92857143     0.48967187     0.20594046
     0.92857143     0.61467187     0.20594046
     0.92857143     0.73967187     0.20594046
     0.92857143     0.86467187     0.20594046
     0.92857143     0.98967187     0.20594046
     1.00000000     0.11467187     0.20594046
     1.00000000     0.23967187     0.20594046
     1.00000000     0.36467187     0.20594046
     1.00000000     0.48967187     0.20594046
     1.00000000     0.61467187     0.20594046
     1.00000000     0.73967187     0.20594046
     1.00000000     0.86467187     0.20594046
     1.00000000     0.98967187     0.20594046
    -0.00515597     0.07218364     0.46094041
     0.06564049     0.08103319     0.46094041
     0.05679093     0.20492700     0.46094041
     0.04794137     0.32882080     0.46094041
     0.03909181     0.45271461     0.46094041
     0.03024226     0.57660842     0.46094041
     0.02139270     0.70050222     0.46094041
     0.01254314     0.82439603     0.46094041
     0.00369358     0.94828983     0.46094041
     0.13643695     0.08988275     0.46094041
     0.12758739     0.21377656     0.46094041
     0.11873783     0.33767036     0.46094041
     0.10988827     0.46156417     0.46094041
     0.10103872     0.58545797     0.46094041
     0.09218916     0.70935178     0.46094041
     0.08333960     0.83324558     0.46094041
     0.07449004     0.95713939     0.46094041
     0.20723341     0.09873231     0.46094041
     0.19838385     0.22262611     0.46094041
     0.18953429     0.34651992     0.46094041
     0.18068473     0.47041373     0.46094041
     0.17183518     0.59430753     0.46094041
     0.16298562     0.71820134     0.46094041
     0.15413606     0.84209514     0.46094041
     0.14528650     0.96598895     0.46094041
     0.27802987     0.10758187     0.46094041
     0.26918031     0.23147567     0.46094041
     0.26033075     0.35536948     0.46094041
     0.25148119     0.47926328     0.46094041
     0.24263164     0.60315709     0.46094041
     0.23378208     0.72705089     0.46094041
     0.22493252     0.85094470     0.46094041
     0.21608296     0.97483850     0.46094041
     0.34882633     0.11643142     0.46094041
     0.33997677     0.24032523     0.46094041
     0.33112721     0.36421903     0.46094041
     0.32227765     0.48811284     0.46094041
     0.31342810     0.61200665     0.46094041
     0.30457854     0.73590045     0.46094041
     0.29572898     0.85979426     0.46094041
     0.28687942     0.98368806     0.46094041
     0.41962279     0.12528098     0.46094041
     0.41077323     0.24917479     0.46094041
     0.40192367     0.37306859     0.46094041
     0.39307411     0.49696240     0.46094041
     0.38422456     0.62085620     0.46094041
     0.37537500     0.74475001     0.46094041
     0.36652544     0.86864381     0.46094041
     0.35767588     0.99253762     0.46094041
     0.49041925     0.13413054     0.46094041
     0.48156969     0.25802434     0.46094041
     0.47272013     0.38191815     0.46094041
     0.46387057     0.50581196     0.46094041
     0.45502102     0.62970576     0.46094041
     0.44617146     0.75359957     0.46094041
     0.43732190     0.87749337     0.46094041
     0.42847234     1.00138718     0.46094041
     0.56121571     0.14298010     0.46094041
     0.55236615     0.26687390     0.46094041
     0.54351659     0.39076771     0.46094041
     0.53466703     0.51466151     0.46094041
     0.52581748     0.63855532     0.46094041
     0.51696792     0.76244912     0.46094041
     0.50811836     0.88634293     0.46094041
     0.49926880     1.01023673     0.46094041
     0.63201217     0.15182965     0.46094041
     0.62316261     0.27572346     0.46094041
     0.61431305     0.39961727     0.46094041
     0.60546349     0.52351107     0.46094041
     0.59661394     0.64740488     0.46094041
     0.58776438     0.77129868     0.46094041
     0.57891482     0.89519249     0.46094041
     0.57006526     1.01908629     0.46094041
     0.70280863     0.16067921     0.46094041
     0.69395907     0.28457302     0.46094041
     0.68510951     0.40846682     0.46094041
     0.67625996     0.53236063     0.46094041
     0.66741040     0.65625443     0.46094041
     0.65856084     0.78014824     0.46094041
     0.64971128     0.90404204     0.46094041
     0.64086173     1.02793585     0.46094041
     0.77360509     0.16952877     0.46094041
     0.76475553     0.29342257     0.46094041
     0.75590597     0.41731638     0.46094041
     0.74705642     0.54121019     0.46094041
     0.73820686     0.66510399     0.46094041
     0.72935730     0.78899780     0.46094041
     0.72050774     0.91289160     0.46094041
     0.71165819     1.03678541     0.46094041
     0.84440155     0.17837833     0.46094041
     0.83555199     0.30227213     0.46094041
     0.82670243     0.42616594     0.46094041
     0.81785288     0.55005974     0.46094041
     0.80900332     0.67395355     0.46094041
     0.80015376     0.79784735     0.46094041
     0.79130420     0.92174116     0.46094041
     0.78245465     1.04563496     0.46094041
     0.91519801     0.18722788     0.46094041
     0.90634845     0.31112169     0.46094041
     0.89749889     0.43501550     0.46094041
     0.88864934     0.55890930     0.46094041
     0.87979978     0.68280311     0.46094041
     0.87095022     0.80669691     0.46094041
     0.86210066     0.93059072     0.46094041
     0.85325111     1.05448452     0.46094041
     0.98599447     0.19607744     0.46094041
     0.97714491     0.31997125     0.46094041
     0.96829535     0.44386505     0.46094041
     0.95944580     0.56775886     0.46094041
     0.95059624     0.69165266     0.46094041
     0.94174668     0.81554647     0.46094041
     0.93289712     0.93944027     0.46094041
     0.92404757     1.06333408     0.46094041
    -0.00369358     0.05171017     0.35499995
     0.06710288     0.06055973     0.35499995
     0.05825332     0.18445353     0.35499995
     0.04940376     0.30834734     0.35499995
     0.04055420     0.43224114     0.35499995
     0.03170465     0.55613495     0.35499995
     0.02285509     0.68002875     0.35499995
     0.01400553     0.80392256     0.35499995
     0.00515597     0.92781636     0.35499995
     0.13789934     0.06940928     0.35499995
     0.12904978     0.19330309     0.35499995
     0.12020022     0.31719689     0.35499995
     0.11135066     0.44109070     0.35499995
     0.10250111     0.56498450     0.35499995
     0.09365155     0.68887831     0.35499995
     0.08480199     0.81277212     0.35499995
     0.07595243     0.93666592     0.35499995
     0.20869580     0.07825884     0.35499995
     0.19984624     0.20215265     0.35499995
     0.19099668     0.32604645     0.35499995
     0.18214712     0.44994026     0.35499995
     0.17329757     0.57383406     0.35499995
     0.16444801     0.69772787     0.35499995
     0.15559845     0.82162167     0.35499995
     0.14674889     0.94551548     0.35499995
     0.27949226     0.08710840     0.35499995
     0.27064270     0.21100220     0.35499995
     0.26179314     0.33489601     0.35499995
     0.25294358     0.45878981     0.35499995
     0.24409403     0.58268362     0.35499995
     0.23524447     0.70657743     0.35499995
     0.22639491     0.83047123     0.35499995
     0.21754535     0.95436504     0.35499995
     0.35028872     0.09595796     0.35499995
     0.34143916     0.21985176     0.35499995
     0.33258960     0.34374557     0.35499995
     0.32374004     0.46763937     0.35499995
     0.31489049     0.59153318     0.35499995
     0.30604093     0.71542698     0.35499995
     0.29719137     0.83932079     0.35499995
     0.28834181     0.96321459     0.35499995
     0.42108518     0.10480751     0.35499995
     0.41223562     0.22870132     0.35499995
     0.40338606     0.35259512     0.35499995
     0.39453651     0.47648893     0.35499995
     0.38568695     0.60038273     0.35499995
     0.37683739     0.72427654     0.35499995
     0.36798783     0.84817035     0.35499995
     0.35913827     0.97206415     0.35499995
     0.49188164     0.11365707     0.35499995
     0.48303208     0.23755088     0.35499995
     0.47418252     0.36144468     0.35499995
     0.46533297     0.48533849     0.35499995
     0.45648341     0.60923229     0.35499995
     0.44763385     0.73312610     0.35499995
     0.43878429     0.85701990     0.35499995
     0.42993474     0.98091371     0.35499995
     0.56267810     0.12250663     0.35499995
     0.55382854     0.24640043     0.35499995
     0.54497898     0.37029424     0.35499995
     0.53612943     0.49418804     0.35499995
     0.52727987     0.61808185     0.35499995
     0.51843031     0.74197566     0.35499995
     0.50958075     0.86586946     0.35499995
     0.50073120     0.98976327     0.35499995
     0.63347456     0.13135619     0.35499995
     0.62462500     0.25524999     0.35499995
     0.61577544     0.37914380     0.35499995
     0.60692589     0.50303760     0.35499995
     0.59807633     0.62693141     0.35499995
     0.58922677     0.75082521     0.35499995
     0.58037721     0.87471902     0.35499995