b-P                                     
   1.00000000000000     
     3.2969996349473898    0.0000000000000000    0.0000000000000000
     0.0000000000000000    4.4304863288506597    0.0000000000000000
     0.0000000000000000    0.0000000000000000   14.1062415965682018
   P 
     4
Direct
  0.0000000000000000  0.5826250681083553  0.5751018338808943
 -0.0000000000000000  0.4173749318916448  0.4248981661191056
  0.5000000000000000  0.0826250601083546  0.4248981661191056
  0.5000000000000000  0.9173749318916447  0.5751018338808943
 
  0.00000000E+00  0.00000000E+00  0.00000000E+00
  0.00000000E+00  0.00000000E+00  0.00000000E+00
  0.00000000E+00  0.00000000E+00  0.00000000E+00
  0.00000000E+00  0.00000000E+00  0.00000000E+00
