Ta2 S4                                  
   1.00000000000000     
     3.3409239999999998    0.0000000000000000    0.0000000000000000
    -1.6704619999999999    2.8933249999999999    0.0000000000000000
     0.0000000000000000    0.0000000000000000   25.0000000000000000
   Ta   S 
     2     4
Direct
 -0.0000000000000000 -0.0000000000000000  0.3705898231072144
 -0.0000000000000000  0.0000000000000000  0.6119371768927832
  0.6666669999999968  0.3333330000000032  0.3079287308591685
  0.6666669999999968  0.3333330000000032  0.4327153951824885
  0.3333330000000032  0.6666669999999968  0.5498106048175114
  0.3333330000000032  0.6666669999999968  0.6745982691408289
 
  0.00000000E+00  0.00000000E+00  0.00000000E+00
  0.00000000E+00  0.00000000E+00  0.00000000E+00
  0.00000000E+00  0.00000000E+00  0.00000000E+00
  0.00000000E+00  0.00000000E+00  0.00000000E+00
  0.00000000E+00  0.00000000E+00  0.00000000E+00
  0.00000000E+00  0.00000000E+00  0.00000000E+00
