Generated by Twist2D
    1.0
       8.35231000       2.89332500       0.00000000
       1.67046200       8.67997500       0.00000000
       0.00000000       0.00000000      16.00000000
    Ta  S
    14  28
Direct
     0.00000000     0.00000000     0.38955381
     0.14285714     0.28571429     0.38955381
     0.28571429     0.57142857     0.38955381
     0.42857143     0.85714286     0.38955381
     0.57142857     0.14285714     0.38955381
     0.71428571     0.42857143     0.38955381
     0.85714286     0.71428571     0.38955381
     0.14285714     0.57142857     0.80968100
     0.42857143     0.71428571     0.80968100
     0.71428571     0.85714286     0.80968100
     0.00000000     0.00000000     0.80968100
     0.28571429     0.14285714     0.80968100
     0.57142857     0.28571429     0.80968100
     0.85714286     0.42857143     0.80968100
     0.19047643     0.04761886     0.29164600
     0.33333357     0.33333314     0.29164600
     0.47619071     0.61904743     0.29164600
     0.61904786     0.90476171     0.29164600
     0.76190500     0.19047600     0.29164600
     0.90476214     0.47619029     0.29164600
     1.04761929     0.76190457     0.29164600
     0.19047643     0.04761886     0.48662413
     0.33333357     0.33333314     0.48662413
     0.47619071     0.61904743     0.48662413
     0.61904786     0.90476171     0.48662413
     0.76190500     0.19047600     0.48662413
     0.90476214     0.47619029     0.48662413
     1.04761929     0.76190457     0.48662413
     0.61904743     0.47619071     0.71260912
     0.90476171     0.61904786     0.71260912
     1.19047600     0.76190500     0.71260912
     0.47619029    -0.09523786     0.71260912
     0.76190457     0.04761929     0.71260912
     1.04761886     0.19047643     0.71260912
     1.33333314     0.33333357     0.71260912
     0.61904743     0.47619071     0.90758881
     0.90476171     0.61904786     0.90758881
     1.19047600     0.76190500     0.90758881
     0.47619029    -0.09523786     0.90758881
     0.76190457     0.04761929     0.90758881
     1.04761886     0.19047643     0.90758881
     1.33333314     0.33333357     0.90758881
