Generated by Twist2D
    1.0
       6.16807700       2.13668500       0.00000000
       1.23361400       6.41005500       0.00000000
       0.00000000       0.00000000      16.00000000
    C
    28
Direct
     0.00000000     0.00000000     0.29166381
     0.14285714     0.28571429     0.29166381
     0.28571429     0.57142857     0.29166381
     0.42857143     0.85714286     0.29166381
     0.57142857     0.14285714     0.29166381
     0.71428571     0.42857143     0.29166381
     0.85714286     0.71428571     0.29166381
     0.19047643     0.04761886     0.29164600
     0.33333357     0.33333314     0.29164600
     0.47619071     0.61904743     0.29164600
     0.61904786     0.90476171     0.29164600
     0.76190500     0.19047600     0.29164600
     0.90476214     0.47619029     0.29164600
     1.04761929     0.76190457     0.29164600
     0.14285714     0.57142857     0.51764881
     0.42857143     0.71428571     0.51764881
     0.71428571     0.85714286     0.51764881
     0.00000000     0.00000000     0.51764881
     0.28571429     0.14285714     0.51764881
     0.57142857     0.28571429     0.51764881
     0.85714286     0.42857143     0.51764881
     0.61904743     0.47619071     0.51766663
     0.90476171     0.61904786     0.51766663
     1.19047600     0.76190500     0.51766663
     0.47619029    -0.09523786     0.51766663
     0.76190457     0.04761929     0.51766663
     1.04761886     0.19047643     0.51766663
     1.33333314     0.33333357     0.51766663
