C4                                      
   1.00000000000000     
     2.4672310000000000    0.0000000000000000    0.0000000000000000
    -1.2336160000000000    2.1366849999999999    0.0000000000000000
     0.0000000000000000    0.0000000000000000   19.0000000000000000
   C 
     4
Direct
 -0.0000000000000000  0.0000000000000000  0.3888162271163527
  0.6666669999999968  0.3333330000000032  0.3888010434044696
  0.0000000000000000 -0.0000000000000000  0.5743417728836474
  0.3333330000000032  0.6666669999999968  0.5743569565955305
 
  0.00000000E+00  0.00000000E+00  0.00000000E+00
  0.00000000E+00  0.00000000E+00  0.00000000E+00
  0.00000000E+00  0.00000000E+00  0.00000000E+00
  0.00000000E+00  0.00000000E+00  0.00000000E+00
